#=======================================================
# FHI-aims file: /mnt/lustre/a2fs-work2/work/e05/e05/prakaya/chalcogenide_perovskites/redo/ternary/BaZrS3_Pnma_light/relaxation/geometry.in.next_step
# Created using the Atomic Simulation Environment (ASE)
# Tue Mar 12 14:52:07 2024

# Additional information:
#  Relaxed with BFGS, fmax=1.000 meV/AA
#  nsteps = 32
#  residual force  = 0.065491 meV/AA
#  residual stress = 0.688062 meV/AA
#=======================================================
lattice_vector 7.0730071630660003 -0.0000000000000000 0.0000000000000000 
lattice_vector 0.0000000000000000 9.9271383713630001 0.0000000000000000 
lattice_vector 0.0000000000000000 0.0000000000000000 6.9499279054930003 
atom_frac 0.9494156744040000 0.2500000000000000 0.5111639804940000 Ba
atom_frac 0.5505843255960000 0.7500000000000000 0.0111639804940000 Ba
atom_frac 0.0505843255960000 0.7500000000000000 0.4888360195059999 Ba
atom_frac 0.4494156744040000 0.2500000000000000 0.9888360195059999 Ba
atom_frac 0.0054378786390000 0.2500000000000000 0.0636965583060000 S
atom_frac 0.4945621213610000 0.7500000000000000 0.5636965583060000 S
atom_frac 0.9945621213610000 0.7500000000000000 0.9363034416940000 S
atom_frac 0.5054378786390000 0.2500000000000000 0.4363034416940000 S
atom_frac 0.2098009502130000 0.0334694325680000 0.7095533008199999 S
atom_frac 0.2901990497870001 0.9665305674319999 0.2095533008200000 S
atom_frac 0.7901990497870000 0.5334694325679999 0.2904466991799999 S
atom_frac 0.7098009502130000 0.4665305674319999 0.7904466991800000 S
atom_frac 0.7901990497870000 0.9665305674319999 0.2904466991799999 S
atom_frac 0.7098009502130000 0.0334694325680000 0.7904466991800000 S
atom_frac 0.2098009502130000 0.4665305674319999 0.7095533008199999 S
atom_frac 0.2901990497870001 0.5334694325679999 0.2095533008200000 S
atom_frac 0.0000000000000000 0.0000000000000000 0.0000000000000000 Zr
atom_frac 0.5000000000000000 0.0000000000000000 0.4999999999999999 Zr
atom_frac 0.0000000000000000 0.5000000000000000 0.0000000000000000 Zr
atom_frac 0.5000000000000000 0.5000000000000000 0.4999999999999999 Zr
