#=======================================================
# FHI-aims file: RP_1_139.in
# Created using the Atomic Simulation Environment (ASE)
# Mon Nov 11 16:15:50 2024
#=======================================================
lattice_vector 10.0000000000000000 0.0000000000000000 0.0000000000000000 
lattice_vector 0.0000000000000000 10.0000000000000000 0.0000000000000000 
lattice_vector 0.0000000000000000 0.0000000000000000 16.0000000000000000 
atom 0.0000000000000000 0.0000000000000000 0.0000000000000000 Ba
atom 5.0000000000000000 0.0000000000000000 0.0000000000000000 Ba
atom 0.0000000000000000 5.0000000000000000 0.0000000000000000 Ba
atom 5.0000000000000000 5.0000000000000000 0.0000000000000000 Ba
atom 0.0000000000000000 0.0000000000000000 5.0000000000000000 Ba
atom 5.0000000000000000 0.0000000000000000 5.0000000000000000 Ba
atom 0.0000000000000000 5.0000000000000000 5.0000000000000000 Ba
atom 5.0000000000000000 5.0000000000000000 5.0000000000000000 Ba
atom 2.5000000000000000 2.5000000000000000 2.5000000000000000 Zr
atom 7.5000000000000000 2.5000000000000000 2.5000000000000000 Zr
atom 2.5000000000000000 7.5000000000000000 2.5000000000000000 Zr
atom 7.5000000000000000 7.5000000000000000 2.5000000000000000 Zr
atom 2.5000000000000000 2.5000000000000000 0.0000000000000000 S
atom 7.5000000000000000 2.5000000000000000 0.0000000000000000 S
atom 2.5000000000000000 7.5000000000000000 0.0000000000000000 S
atom 7.5000000000000000 7.5000000000000000 0.0000000000000000 S
atom 2.5000000000000000 2.5000000000000000 5.0000000000000000 S
atom 7.5000000000000000 2.5000000000000000 5.0000000000000000 S
atom 2.5000000000000000 7.5000000000000000 5.0000000000000000 S
atom 7.5000000000000000 7.5000000000000000 5.0000000000000000 S
atom 2.5000000000000000 0.0000000000000000 2.5000000000000000 S
atom 7.5000000000000000 0.0000000000000000 2.5000000000000000 S
atom 2.5000000000000000 5.0000000000000000 2.5000000000000000 S
atom 7.5000000000000000 5.0000000000000000 2.5000000000000000 S
atom 0.0000000000000000 2.5000000000000000 2.5000000000000000 S
atom 5.0000000000000000 2.5000000000000000 2.5000000000000000 S
atom 0.0000000000000000 7.5000000000000000 2.5000000000000000 S
atom 5.0000000000000000 7.5000000000000000 2.5000000000000000 S
atom 2.5000000000000000 2.5000000000000000 8.0000000000000000 Ba
atom 7.5000000000000000 2.5000000000000000 8.0000000000000000 Ba
atom 2.5000000000000000 7.5000000000000000 8.0000000000000000 Ba
atom 7.5000000000000000 7.5000000000000000 8.0000000000000000 Ba
atom 2.5000000000000000 2.5000000000000000 13.0000000000000000 Ba
atom 7.5000000000000000 2.5000000000000000 13.0000000000000000 Ba
atom 2.5000000000000000 7.5000000000000000 13.0000000000000000 Ba
atom 7.5000000000000000 7.5000000000000000 13.0000000000000000 Ba
atom 5.0000000000000000 5.0000000000000000 10.5000000000000000 Zr
atom 10.0000000000000000 5.0000000000000000 10.5000000000000000 Zr
atom 5.0000000000000000 10.0000000000000000 10.5000000000000000 Zr
atom 10.0000000000000000 10.0000000000000000 10.5000000000000000 Zr
atom 5.0000000000000000 5.0000000000000000 8.0000000000000000 S
atom 10.0000000000000000 5.0000000000000000 8.0000000000000000 S
atom 5.0000000000000000 10.0000000000000000 8.0000000000000000 S
atom 10.0000000000000000 10.0000000000000000 8.0000000000000000 S
atom 5.0000000000000000 5.0000000000000000 13.0000000000000000 S
atom 10.0000000000000000 5.0000000000000000 13.0000000000000000 S
atom 5.0000000000000000 10.0000000000000000 13.0000000000000000 S
atom 10.0000000000000000 10.0000000000000000 13.0000000000000000 S
atom 5.0000000000000000 2.5000000000000000 10.5000000000000000 S
atom 10.0000000000000000 2.5000000000000000 10.5000000000000000 S
atom 5.0000000000000000 7.5000000000000000 10.5000000000000000 S
atom 10.0000000000000000 7.5000000000000000 10.5000000000000000 S
atom 2.5000000000000000 5.0000000000000000 10.5000000000000000 S
atom 7.5000000000000000 5.0000000000000000 10.5000000000000000 S
atom 2.5000000000000000 10.0000000000000000 10.5000000000000000 S
atom 7.5000000000000000 10.0000000000000000 10.5000000000000000 S
