#=======================================================
# FHI-aims file: RP_2_50.in
# Created using the Atomic Simulation Environment (ASE)
# Mon Nov  4 16:03:13 2024
#=======================================================
lattice_vector 10.0000000000000000 0.0000000000000000 0.0000000000000000 
lattice_vector 0.0000000000000000 10.0000000000000000 0.0000000000000000 
lattice_vector 0.0000000000000000 0.0000000000000000 26.0000000000000000 
atom 0.0000000000000000 0.0000000000000000 0.0000000000000000 Ba
atom 5.0000000000000000 0.0000000000000000 0.0000000000000000 Ba
atom 0.0000000000000000 5.0000000000000000 0.0000000000000000 Ba
atom 5.0000000000000000 5.0000000000000000 0.0000000000000000 Ba
atom 0.0000000000000000 0.0000000000000000 5.0000000000000000 Ba
atom 5.0000000000000000 0.0000000000000000 5.0000000000000000 Ba
atom 0.0000000000000000 5.0000000000000000 5.0000000000000000 Ba
atom 5.0000000000000000 5.0000000000000000 5.0000000000000000 Ba
atom 2.5000000000000000 2.5000000000000000 2.5000000000000000 Zr
atom 7.5000000000000000 2.5000000000000000 2.5000000000000000 Zr
atom 2.5000000000000000 7.5000000000000000 2.5000000000000000 Zr
atom 7.5000000000000000 7.5000000000000000 2.5000000000000000 Zr
atom 2.5000000000000000 2.5000000000000000 7.5000000000000000 Zr
atom 7.5000000000000000 2.5000000000000000 7.5000000000000000 Zr
atom 2.5000000000000000 7.5000000000000000 7.5000000000000000 Zr
atom 7.5000000000000000 7.5000000000000000 7.5000000000000000 Zr
atom 2.5000000000000000 2.5000000000000000 0.0000000000000000 S
atom 7.5000000000000000 2.5000000000000000 0.0000000000000000 S
atom 2.5000000000000000 7.5000000000000000 0.0000000000000000 S
atom 7.5000000000000000 7.5000000000000000 0.0000000000000000 S
atom 2.5000000000000000 2.5000000000000000 5.0000000000000000 S
atom 7.5000000000000000 2.5000000000000000 5.0000000000000000 S
atom 2.5000000000000000 7.5000000000000000 5.0000000000000000 S
atom 7.5000000000000000 7.5000000000000000 5.0000000000000000 S
atom 1.5000000000000000 0.0000000000000000 2.5000000000000000 S
atom 8.5000000000000000 0.0000000000000000 2.5000000000000000 S
atom 3.5000000000000000 5.0000000000000000 2.5000000000000000 S
atom 6.5000000000000000 5.0000000000000000 2.5000000000000000 S
atom 3.5000000000000000 0.0000000000000000 7.5000000000000000 S
atom 6.5000000000000000 0.0000000000000000 7.5000000000000000 S
atom 1.5000000000000000 5.0000000000000000 7.5000000000000000 S
atom 8.5000000000000000 5.0000000000000000 7.5000000000000000 S
atom 0.0000000000000000 3.5000000000000000 2.5000000000000000 S
atom 5.0000000000000000 1.5000000000000000 2.5000000000000000 S
atom 0.0000000000000000 6.5000000000000000 2.5000000000000000 S
atom 5.0000000000000000 8.5000000000000000 2.5000000000000000 S
atom 0.0000000000000000 1.5000000000000000 7.5000000000000000 S
atom 5.0000000000000000 3.5000000000000000 7.5000000000000000 S
atom 0.0000000000000000 8.5000000000000000 7.5000000000000000 S
atom 5.0000000000000000 6.5000000000000000 7.5000000000000000 S
atom 0.0000000000000000 0.0000000000000000 10.0000000000000000 Ba
atom 5.0000000000000000 0.0000000000000000 10.0000000000000000 Ba
atom 0.0000000000000000 5.0000000000000000 10.0000000000000000 Ba
atom 5.0000000000000000 5.0000000000000000 10.0000000000000000 Ba
atom 2.5000000000000000 2.5000000000000000 10.0000000000000000 S
atom 7.5000000000000000 2.5000000000000000 10.0000000000000000 S
atom 2.5000000000000000 7.5000000000000000 10.0000000000000000 S
atom 7.5000000000000000 7.5000000000000000 10.0000000000000000 S
atom 2.5000000000000000 2.5000000000000000 13.0000000000000000 Ba
atom 7.5000000000000000 2.5000000000000000 13.0000000000000000 Ba
atom 2.5000000000000000 7.5000000000000000 13.0000000000000000 Ba
atom 7.5000000000000000 7.5000000000000000 13.0000000000000000 Ba
atom 2.5000000000000000 2.5000000000000000 18.0000000000000000 Ba
atom 7.5000000000000000 2.5000000000000000 18.0000000000000000 Ba
atom 2.5000000000000000 7.5000000000000000 18.0000000000000000 Ba
atom 7.5000000000000000 7.5000000000000000 18.0000000000000000 Ba
atom 5.0000000000000000 5.0000000000000000 15.5000000000000000 Zr
atom 10.0000000000000000 5.0000000000000000 15.5000000000000000 Zr
atom 5.0000000000000000 10.0000000000000000 15.5000000000000000 Zr
atom 10.0000000000000000 10.0000000000000000 15.5000000000000000 Zr
atom 5.0000000000000000 5.0000000000000000 20.5000000000000000 Zr
atom 10.0000000000000000 5.0000000000000000 20.5000000000000000 Zr
atom 5.0000000000000000 10.0000000000000000 20.5000000000000000 Zr
atom 10.0000000000000000 10.0000000000000000 20.5000000000000000 Zr
atom 5.0000000000000000 5.0000000000000000 13.0000000000000000 S
atom 10.0000000000000000 5.0000000000000000 13.0000000000000000 S
atom 5.0000000000000000 10.0000000000000000 13.0000000000000000 S
atom 10.0000000000000000 10.0000000000000000 13.0000000000000000 S
atom 5.0000000000000000 5.0000000000000000 18.0000000000000000 S
atom 10.0000000000000000 5.0000000000000000 18.0000000000000000 S
atom 5.0000000000000000 10.0000000000000000 18.0000000000000000 S
atom 10.0000000000000000 10.0000000000000000 18.0000000000000000 S
atom 4.5000000000000000 2.5000000000000000 15.5000000000000000 S
atom 10.5000000000000000 2.5000000000000000 15.5000000000000000 S
atom 5.5000000000000000 7.5000000000000000 15.5000000000000000 S
atom 9.5000000000000000 7.5000000000000000 15.5000000000000000 S
atom 5.5000000000000000 2.5000000000000000 20.5000000000000000 S
atom 9.5000000000000000 2.5000000000000000 20.5000000000000000 S
atom 4.5000000000000000 7.5000000000000000 20.5000000000000000 S
atom 10.5000000000000000 7.5000000000000000 20.5000000000000000 S
atom 2.5000000000000000 5.5000000000000000 15.5000000000000000 S
atom 7.5000000000000000 4.5000000000000000 15.5000000000000000 S
atom 2.5000000000000000 9.5000000000000000 15.5000000000000000 S
atom 7.5000000000000000 10.5000000000000000 15.5000000000000000 S
atom 2.5000000000000000 4.5000000000000000 20.5000000000000000 S
atom 7.5000000000000000 5.5000000000000000 20.5000000000000000 S
atom 2.5000000000000000 10.5000000000000000 20.5000000000000000 S
atom 7.5000000000000000 9.5000000000000000 20.5000000000000000 S
atom 2.5000000000000000 2.5000000000000000 23.0000000000000000 Ba
atom 7.5000000000000000 2.5000000000000000 23.0000000000000000 Ba
atom 2.5000000000000000 7.5000000000000000 23.0000000000000000 Ba
atom 7.5000000000000000 7.5000000000000000 23.0000000000000000 Ba
atom 5.0000000000000000 5.0000000000000000 23.0000000000000000 S
atom 10.0000000000000000 5.0000000000000000 23.0000000000000000 S
atom 5.0000000000000000 10.0000000000000000 23.0000000000000000 S
atom 10.0000000000000000 10.0000000000000000 23.0000000000000000 S
