#=======================================================
# FHI-aims file: geometry-primitive.in
# Created using the Atomic Simulation Environment (ASE)
# Mon May 13 16:44:48 2024
#=======================================================
lattice_vector 5.0000000000000000 0.0000000000000000 0.0000000000000000 
lattice_vector 0.0000000000000000 5.0000000000000000 0.0000000000000000 
lattice_vector 0.0000000000000000 0.0000000000000000 5.0000000000000000 
atom_frac 0.0000000000000000 0.0000000000000000 0.0000000000000000 Cs
atom_frac 0.5000000000000000 0.5000000000000000 0.5000000000000000 Pb
atom_frac 0.5000000000000000 0.5000000000000000 0.0000000000000000 Br
atom_frac 0.5000000000000000 0.0000000000000000 0.5000000000000000 Br
atom_frac 0.0000000000000000 0.5000000000000000 0.5000000000000000 Br
