#=======================================================
# FHI-aims file: geometry-primitive.in
# Created using the Atomic Simulation Environment (ASE)
# Mon May 13 16:44:50 2024
#=======================================================
lattice_vector 7.0710678118654755 0.0000000000000000 0.0000000000000000 
lattice_vector 3.5355339059327369 6.1237243569579460 0.0000000000000000 
lattice_vector 3.5355339059327369 2.0412414523193152 5.7735026918962582 
atom_frac 0.7500000000000000 0.7500000000000000 0.7500000000000000 Cs
atom_frac 0.2500000000000001 0.2500000000000000 0.2499999999999999 Cs
atom_frac 0.5000000000000002 0.5000000000000000 0.4999999999999999 Pb
atom_frac 0.0000000000000000 0.0000000000000000 0.0000000000000000 Pb
atom_frac 0.4160000000000002 0.0839999999999999 0.7159999999999999 Br
atom_frac 0.5839999999999999 0.9160000000000001 0.2840000000000000 Br
atom_frac 0.1170000000000001 0.6830000000000001 0.8169999999999998 Br
atom_frac 0.8830000000000002 0.3169999999999999 0.1830000000000000 Br
atom_frac 0.2170000000000001 0.6510000000000001 0.2829999999999998 Br
atom_frac 0.7829999999999998 0.3490000000000000 0.7170000000000001 Br
