#=======================================================
# FHI-aims file: geometry-primitive.in
# Created using the Atomic Simulation Environment (ASE)
# Mon May 13 16:44:49 2024
#=======================================================
lattice_vector 5.0000000000000000 -5.0000000000000000 0.0000000000000000 
lattice_vector 5.0000000000000000 5.0000000000000000 0.0000000000000000 
lattice_vector -5.0000000000000000 0.0000000000000000 5.0000000000000009 
atom_frac 0.7500000000000000 0.7500000000000000 0.0000000000000000 Cs
atom_frac 0.2500000000000000 0.2500000000000000 0.0000000000000000 Cs
atom_frac 0.0000000000000000 0.5000000000000000 0.5000000000000000 Pb
atom_frac 0.5000000000000000 0.0000000000000000 0.5000000000000000 Pb
atom_frac 0.2000000000000000 0.8000000000000000 0.5000000000000000 Br
atom_frac 0.8000000000000000 0.2000000000000000 0.5000000000000000 Br
atom_frac 0.3500000000000000 0.6500000000000000 0.0000000000000000 Br
atom_frac 0.6500000000000000 0.3500000000000000 0.0000000000000000 Br
atom_frac 0.1999999999999997 0.1999999999999997 0.2999999999999998 Br
atom_frac 0.8000000000000004 0.8000000000000003 0.7000000000000001 Br
