#=======================================================
# FHI-aims file: geometry-primitive.in
# Created using the Atomic Simulation Environment (ASE)
# Mon May 13 16:44:49 2024
#=======================================================
lattice_vector -3.5355339059327378 3.5355339059327378 5.0000000000000000 
lattice_vector 3.5355339059327378 -3.5355339059327378 5.0000000000000000 
lattice_vector 3.5355339059327378 3.5355339059327378 -5.0000000000000000 
atom_frac 0.7500000000000000 0.2500000000000000 0.5000000000000000 Cs
atom_frac 0.2500000000000000 0.7500000000000000 0.5000000000000000 Cs
atom_frac 0.0000000000000000 -0.0000000000000000 0.0000000000000000 Pb
atom_frac 0.5000000000000000 0.5000000000000000 0.0000000000000000 Pb
atom_frac 0.7500000000000000 0.7500000000000000 0.0000000000000000 Br
atom_frac 0.2500000000000000 0.2500000000000000 0.0000000000000000 Br
atom_frac 0.8499999999999999 0.6500000000000001 0.5000000000000000 Br
atom_frac 0.1500000000000000 0.3500000000000000 0.5000000000000000 Br
atom_frac 0.3499999999999999 0.8500000000000001 0.2000000000000000 Br
atom_frac 0.6499999999999999 0.1500000000000000 0.8000000000000000 Br
