#=======================================================
# FHI-aims file: geometry-primitive.in
# Created using the Atomic Simulation Environment (ASE)
# Mon May 13 16:44:51 2024
#=======================================================
lattice_vector 7.0710678118654755 0.0000000000000000 0.0000000000000000 
lattice_vector 0.0000000000000000 10.0000000000000000 0.0000000000000000 
lattice_vector 0.0000000000000004 0.0000000000000000 7.0710678118654755 
atom_frac 0.0000000000000000 0.7500000000000000 0.0000000000000000 Cs
atom_frac 0.0000000000000000 0.2500000000000000 0.0000000000000000 Cs
atom_frac 0.5000000000000000 0.7500000000000000 0.5000000000000000 Cs
atom_frac 0.5000000000000000 0.2500000000000000 0.5000000000000000 Cs
atom_frac 0.5000000000000000 0.0000000000000000 0.0000000000000000 Pb
atom_frac 0.5000000000000000 0.5000000000000000 0.0000000000000000 Pb
atom_frac 0.0000000000000000 0.0000000000000000 0.5000000000000000 Pb
atom_frac 0.0000000000000000 0.5000000000000000 0.5000000000000000 Pb
atom_frac 0.6500000000000000 0.0660000000000001 0.6500000000000000 Br
atom_frac 0.6500000000000000 0.4340000000000000 0.6500000000000000 Br
atom_frac 0.3500000000000001 0.9340000000000001 0.3500000000000001 Br
atom_frac 0.3500000000000001 0.5660000000000001 0.3500000000000001 Br
atom_frac 0.8500000000000000 0.9670000000000001 0.1500000000000000 Br
atom_frac 0.8500000000000000 0.5330000000000000 0.1500000000000000 Br
atom_frac 0.1500000000000000 0.0330000000000000 0.8500000000000000 Br
atom_frac 0.1500000000000000 0.4670000000000001 0.8500000000000000 Br
atom_frac 0.5329999999999999 0.7500000000000000 0.9010000000000000 Br
atom_frac 0.4670000000000001 0.2500000000000000 0.0990000000000000 Br
atom_frac 0.9670000000000000 0.7500000000000000 0.5990000000000000 Br
atom_frac 0.0330000000000001 0.2500000000000000 0.4010000000000001 Br
