#=======================================================
# FHI-aims file: geometry-primitive.in
# Created using the Atomic Simulation Environment (ASE)
# Mon May 13 16:44:51 2024
#=======================================================
lattice_vector -5.0000000000000000 5.0000000000000000 5.0000000000000000 
lattice_vector 5.0000000000000000 -5.0000000000000000 5.0000000000000000 
lattice_vector 5.0000000000000000 5.0000000000000000 -5.0000000000000000 
atom_frac -0.0000000000000000 0.0000000000000000 0.0000000000000000 Cs
atom_frac -0.0000000000000000 0.5000000000000000 0.5000000000000000 Cs
atom_frac 0.5000000000000000 0.0000000000000000 0.5000000000000000 Cs
atom_frac 0.5000000000000000 0.5000000000000000 0.0000000000000000 Cs
atom_frac 0.5000000000000000 0.5000000000000000 0.5000000000000000 Pb
atom_frac 0.5000000000000000 0.0000000000000000 0.0000000000000000 Pb
atom_frac -0.0000000000000000 0.5000000000000000 0.0000000000000000 Pb
atom_frac -0.0000000000000000 0.0000000000000000 0.5000000000000000 Pb
atom_frac 0.3500000000000001 0.1840000000000000 0.5340000000000000 Br
atom_frac 0.3500000000000001 0.8160000000000001 0.1660000000000001 Br
atom_frac 0.6499999999999999 0.1839999999999999 0.8339999999999999 Br
atom_frac 0.6500000000000000 0.8160000000000001 0.4660000000000000 Br
atom_frac 0.1500000000000000 0.4330000000000001 0.2830000000000000 Br
atom_frac 0.1500000000000001 0.8670000000000000 0.7170000000000001 Br
atom_frac 0.8500000000000001 0.5670000000000001 0.7170000000000001 Br
atom_frac 0.8500000000000001 0.1330000000000000 0.2829999999999999 Br
atom_frac 0.5330000000000003 0.3160000000000001 0.2170000000000001 Br
atom_frac 0.4670000000000000 0.6840000000000001 0.7829999999999999 Br
atom_frac 0.0990000000000000 0.3160000000000001 0.7829999999999999 Br
atom_frac 0.9010000000000002 0.6840000000000001 0.2170000000000001 Br
