#=======================================================
# FHI-aims file: geometry-primitive.in
# Created using the Atomic Simulation Environment (ASE)
# Mon May 13 16:44:49 2024
#=======================================================
lattice_vector 7.0710678118654755 0.0000000000000000 0.0000000000000000 
lattice_vector 0.0000000000000000 7.0710678118654755 0.0000000000000000 
lattice_vector 0.0000000000000000 0.0000000000000000 5.0000000000000000 
atom_frac 0.0000000000000000 0.5000000000000000 0.0000000000000000 Cs
atom_frac 0.5000000000000000 0.0000000000000000 0.0000000000000000 Cs
atom_frac 0.0000000000000000 0.0000000000000000 0.5000000000000000 Pb
atom_frac 0.5000000000000000 0.5000000000000000 0.5000000000000000 Pb
atom_frac 0.0000000000000000 0.0000000000000000 0.0000000000000000 Br
atom_frac 0.5000000000000000 0.5000000000000000 0.0000000000000000 Br
atom_frac 0.3500000000000001 0.8500000000000001 0.5000000000000000 Br
atom_frac 0.6500000000000000 0.1499999999999999 0.5000000000000000 Br
atom_frac 0.8500000000000001 0.6500000000000000 0.5000000000000000 Br
atom_frac 0.1499999999999999 0.3500000000000001 0.5000000000000000 Br
