#=======================================================
# FHI-aims file: geometry-primitive.in
# Created using the Atomic Simulation Environment (ASE)
# Mon May 13 16:44:50 2024
#=======================================================
lattice_vector 3.5355339059327378 2.0412414523193148 5.7735026918962582 
lattice_vector -3.5355339059327378 2.0412414523193148 5.7735026918962582 
lattice_vector 0.0000000000000000 -4.0824829046386295 5.7735026918962582 
atom_frac 0.7499999999999998 0.7499999999999999 0.7500000000000000 Cs
atom_frac 0.2499999999999999 0.2500000000000000 0.2499999999999999 Cs
atom_frac 0.4999999999999999 0.5000000000000000 0.5000000000000000 Pb
atom_frac -0.0000000000000001 -0.0000000000000000 -0.0000000000000000 Pb
atom_frac 0.4500000000000001 0.7500000000000000 0.0499999999999999 Br
atom_frac 0.5499999999999998 0.2499999999999998 0.9500000000000003 Br
atom_frac 0.0499999999999997 0.4500000000000001 0.7500000000000000 Br
atom_frac 0.9499999999999997 0.5499999999999998 0.2499999999999998 Br
atom_frac 0.2499999999999996 0.9500000000000002 0.5500000000000000 Br
atom_frac 0.7499999999999998 0.0499999999999997 0.4500000000000002 Br
