#=======================================================
# FHI-aims file: geometry-primitive.in
# Created using the Atomic Simulation Environment (ASE)
# Mon May 13 16:44:50 2024
#=======================================================
lattice_vector 6.1237243569579451 -3.5355339059327378 0.0000000000000000 
lattice_vector 6.1237243569579451 3.5355339059327378 0.0000000000000000 
lattice_vector -4.0824829046386304 0.0000000000000000 5.7735026918962582 
atom_frac 0.7500000000000000 0.2500000000000001 0.7500000000000000 Cs
atom_frac 0.2500000000000000 0.7500000000000000 0.2499999999999999 Cs
atom_frac 0.5000000000000000 0.0000000000000000 0.0000000000000000 Pb
atom_frac -0.0000000000000001 0.5000000000000000 0.4999999999999999 Pb
atom_frac 0.7999999999999998 0.6000000000000000 0.7999999999999999 Br
atom_frac 0.1999999999999999 0.4000000000000002 0.1999999999999999 Br
atom_frac 0.4000000000000001 0.2000000000000000 0.7000000000000000 Br
atom_frac 0.5999999999999999 0.8000000000000000 0.3000000000000000 Br
atom_frac 0.8500000000000002 0.1500000000000000 0.2499999999999999 Br
atom_frac 0.1499999999999997 0.8500000000000003 0.7500000000000000 Br
