#=======================================================
# FHI-aims file: geometry-primitive.in
# Created using the Atomic Simulation Environment (ASE)
# Mon May 13 16:44:51 2024
#=======================================================
lattice_vector 7.0710678118654755 0.0000000000000000 0.0000000000000000 
lattice_vector 0.0000000000000000 10.0000000000000000 0.0000000000000000 
lattice_vector 0.0000000000000000 0.0000000000000000 7.0710678118654755 
atom_frac 0.0000000000000000 0.7500000000000000 0.0000000000000000 Cs
atom_frac 0.0000000000000000 0.2500000000000000 0.0000000000000000 Cs
atom_frac 0.5000000000000000 0.7500000000000000 0.5000000000000000 Cs
atom_frac 0.5000000000000000 0.2500000000000000 0.5000000000000000 Cs
atom_frac 0.5000000000000000 0.0000000000000000 0.0000000000000000 Pb
atom_frac 0.5000000000000000 0.5000000000000000 0.0000000000000000 Pb
atom_frac 0.0000000000000000 0.0000000000000000 0.5000000000000000 Pb
atom_frac 0.0000000000000000 0.5000000000000000 0.5000000000000000 Pb
atom_frac 0.6500000000000000 0.0500000000000000 0.6500000000000000 Br
atom_frac 0.6500000000000000 0.4500000000000000 0.6500000000000000 Br
atom_frac 0.3500000000000001 0.9500000000000001 0.3500000000000001 Br
atom_frac 0.3500000000000001 0.5500000000000000 0.3500000000000001 Br
atom_frac 0.8500000000000001 0.9500000000000001 0.1499999999999999 Br
atom_frac 0.8500000000000001 0.5500000000000000 0.1499999999999999 Br
atom_frac 0.1499999999999999 0.0500000000000000 0.8500000000000001 Br
atom_frac 0.1499999999999999 0.4500000000000000 0.8500000000000001 Br
atom_frac 0.5000000000000000 0.7500000000000000 0.9000000000000000 Br
atom_frac 0.5000000000000000 0.2500000000000000 0.1000000000000001 Br
atom_frac 0.0000000000000000 0.7500000000000000 0.6000000000000001 Br
atom_frac 0.0000000000000000 0.2500000000000000 0.3999999999999999 Br
