#=======================================================
# FHI-aims file: /mnt/lustre/a2fs-work2/work/e05/e05/prakaya/chalcogenide_perovskites/redo/ternary/tilted_perovskites/BaZrS3_tilt_167/relaxation/geometry.in.next_step
# Created using the Atomic Simulation Environment (ASE)
# Sun Mar 24 14:29:04 2024

# Additional information:
#  Relaxed with BFGS, fmax=1.000 meV/AA
#  nsteps = 12
#  residual force  = 0.019314 meV/AA
#  residual stress = 0.549112 meV/AA
#=======================================================
lattice_vector 3.5423830850029998 2.0451958276990001 5.6268140417329997 
lattice_vector -3.5423830850029998 2.0451958276990001 5.6268140417329997 
lattice_vector -0.0000000000000000 -4.0903916553990003 5.6268140417329997 
atom_frac 0.7499999999999999 0.7499999999999999 0.7500000000000001 Ba
atom_frac 0.2500000000000001 0.2500000000000001 0.2500000000000000 Ba
atom_frac 0.5000000000000001 0.5000000000000001 0.5000000000000000 Zr
atom_frac 0.0000000000000000 -0.0000000000000000 -0.0000000000000000 Zr
atom_frac 0.3082445420580000 0.7500000000000001 0.1917554579419999 S
atom_frac 0.6917554579420000 0.2500000000000000 0.8082445420580000 S
atom_frac 0.1917554579419999 0.3082445420580000 0.7500000000000001 S
atom_frac 0.8082445420580000 0.6917554579420000 0.2500000000000000 S
atom_frac 0.2500000000000001 0.8082445420579998 0.6917554579420001 S
atom_frac 0.7499999999999999 0.1917554579420000 0.3082445420580000 S
