#=======================================================
# FHI-aims file: /mnt/lustre/a2fs-work2/work/e05/e05/prakaya/chalcogenide_perovskites/redo/ternary/tilted_perovskites/BaZrS3_tilt_2/relaxation/geometry.in.next_step
# Created using the Atomic Simulation Environment (ASE)
# Sun Mar 24 14:48:43 2024

# Additional information:
#  Relaxed with BFGS, fmax=1.000 meV/AA
#  nsteps = 4
#  residual force  = 0.690870 meV/AA
#  residual stress = 0.713809 meV/AA
#=======================================================
lattice_vector 7.0500664268600000 -0.0792036552480000 0.1119864523880000 
lattice_vector 3.4564440653139998 5.9878791782810001 -0.0003564760540000 
lattice_vector 3.5936023057400002 1.9164315664889999 5.7571559854989998 
atom_frac 0.7501020478220000 0.7501303702339999 0.7499148444620000 Ba
atom_frac 0.2498979521780000 0.2498696297650000 0.2500851555380000 Ba
atom_frac 0.5000000000000001 0.5000000000000001 0.5000000000000000 Zr
atom_frac 0.0000000000000000 0.0000000000000000 0.0000000000000000 Zr
atom_frac 0.3089934179340000 0.1910081097270000 0.6909780036460000 S
atom_frac 0.6910065820660000 0.8089918902730001 0.3090219963540000 S
atom_frac 0.1912265275780000 0.6907979226590000 0.8092038115680000 S
atom_frac 0.8087734724220002 0.3092020773410000 0.1907961884320000 S
atom_frac 0.2497982171440000 0.7502601402660000 0.2502006729120000 S
atom_frac 0.7502017828559998 0.2497398597340001 0.7497993270889999 S
