#=======================================================
# FHI-aims file: /mnt/lustre/a2fs-work2/work/e05/e05/prakaya/chalcogenide_perovskites/redo/ternary/tilted_perovskites/BaZrS3_tilt_71/relaxation/geometry.in.next_step
# Created using the Atomic Simulation Environment (ASE)
# Sun Mar 24 14:46:23 2024

# Additional information:
#  Relaxed with BFGS, fmax=1.000 meV/AA
#  nsteps = 4
#  residual force  = 0.022861 meV/AA
#  residual stress = 0.365604 meV/AA
#=======================================================
lattice_vector -5.0881135722039996 4.8940263425600001 4.8940245692010000 
lattice_vector 5.0881135722039996 -4.8940263425600001 4.8940245692010000 
lattice_vector 5.0881135722039996 4.8940263425600001 -4.8940245692010000 
atom_frac -0.0000000000000000 0.0000000000000000 0.0000000000000000 Ba
atom_frac -0.0000000000000000 0.5000000000000000 0.5000000000000000 Ba
atom_frac 0.5000000000000000 0.0000000000000000 0.5000000000000000 Ba
atom_frac 0.5000000000000000 0.5000000000000000 0.0000000000000000 Ba
atom_frac 0.5000000000000000 0.5000000000000000 0.5000000000000000 Zr
atom_frac 0.5000000000000000 0.0000000000000000 0.0000000000000000 Zr
atom_frac -0.0000000000000000 0.5000000000000000 0.0000000000000000 Zr
atom_frac -0.0000000000000000 0.0000000000000000 0.5000000000000000 Zr
atom_frac 0.3059906530829999 0.2499987926000000 0.5559894456840000 S
atom_frac 0.3059906530829999 0.7500012073989999 0.0559918604830000 S
atom_frac 0.6940093469169999 0.2499987926000000 0.9440081395170000 S
atom_frac 0.6940093469169999 0.7500012073989999 0.4440105543160000 S
atom_frac 0.1940089103520000 0.4440087828150000 0.2499998724630000 S
atom_frac 0.1940089103520000 0.9440090378890001 0.7500001275370000 S
atom_frac 0.8059910896479998 0.5559912171849999 0.7500001275370000 S
atom_frac 0.8059910896480000 0.0559909621110000 0.2499998724630000 S
atom_frac 0.5000012326160000 0.2500014579589999 0.2499997746570000 S
atom_frac 0.4999987673840001 0.7499985420410000 0.7500002253430000 S
atom_frac 0.0000016833020000 0.2500014579589999 0.7500002253430000 S
atom_frac 0.9999983166979998 0.7499985420409999 0.2499997746570000 S
