#=======================================================
# FHI-aims file: /mnt/lustre/a2fs-work2/work/e05/e05/prakaya/chalcogenide_perovskites/redo/ternary/tilted_perovskites/BaZrS3_tilt_139/relaxation/geometry.in.next_step
# Created using the Atomic Simulation Environment (ASE)
# Sun Mar 24 14:30:41 2024

# Additional information:
#  Relaxed with BFGS, fmax=1.000 meV/AA
#  nsteps = 21
#  residual force  = 0.044454 meV/AA
#  residual stress = 0.186646 meV/AA
#=======================================================
lattice_vector -4.9900020986670004 4.9900020986670004 4.9314450565310004 
lattice_vector 4.9900020986670004 -4.9900020986670004 4.9314450565310004 
lattice_vector 4.9900020986670004 4.9900020986670004 -4.9314450565310004 
atom_frac 0.4999999999999999 -0.0000000000000000 0.5000000000000000 Ba
atom_frac -0.0000000000000000 0.5000000000000000 0.5000000000000000 Ba
atom_frac -0.0000000000000000 0.0000000000000000 0.0000000000000000 Ba
atom_frac 0.5000000000000000 0.5000000000000000 0.0000000000000000 Ba
atom_frac -0.0000000000000000 0.0000000000000000 0.5000000000000000 Zr
atom_frac 0.5000000000000000 0.5000000000000000 0.5000000000000000 Zr
atom_frac 0.4999999999999999 -0.0000000000000000 0.0000000000000000 Zr
atom_frac -0.0000000000000000 0.5000000000000000 0.0000000000000000 Zr
atom_frac 0.9632427943480001 0.2149893820929999 0.7482534122550000 S
atom_frac 0.5332640301620001 0.7850106179070000 0.7482534122550000 S
atom_frac 0.4667359698380000 0.2149893820930000 0.2517465877450000 S
atom_frac 0.0367572056520001 0.7850106179070002 0.2517465877450000 S
atom_frac 0.7850106179070000 0.0367572056519999 0.2517465877449999 S
atom_frac 0.2149893820930001 0.4667359698380000 0.2517465877450000 S
atom_frac 0.2149893820930001 0.9632427943480000 0.7482534122550000 S
atom_frac 0.7850106179070001 0.5332640301620000 0.7482534122550000 S
atom_frac 0.7187691684980001 0.7187691684980001 0.4375383369970000 S
atom_frac 0.2812308315020001 0.2812308315020000 0.5624616630030002 S
atom_frac 0.2812308315020001 0.7187691684980000 0.0000000000000000 S
atom_frac 0.7187691684980000 0.2812308315020000 0.0000000000000000 S
