#=======================================================
# FHI-aims file: /mnt/lustre/a2fs-work2/work/e05/e05/prakaya/chalcogenide_perovskites/redo/ternary/tilted_perovskites/BaZrS3_tilt_11/relaxation/geometry.in.next_step
# Created using the Atomic Simulation Environment (ASE)
# Sun Mar 24 14:46:27 2024

# Additional information:
#  Relaxed with BFGS, fmax=1.000 meV/AA
#  nsteps = 14
#  residual force  = 0.898249 meV/AA
#  residual stress = 0.431666 meV/AA
#=======================================================
lattice_vector 7.0729528021699997 -0.0000000000000000 -0.0002025217280000 
lattice_vector -0.0000000000000000 9.9274105864350002 -0.0000000000000000 
lattice_vector -0.0001880129660000 -0.0000000000000000 6.9497472241129996 
atom_frac 0.0505992131440000 0.7499999999999999 0.0111481643930000 Ba
atom_frac -0.0505992131440000 0.2500000000000000 -0.0111481643930000 Ba
atom_frac 0.5505816313770000 0.7499999999999999 0.4887954944320000 Ba
atom_frac 0.4494183686229999 0.2500000000000000 0.5112045055680000 Ba
atom_frac 0.5000000000000000 0.0000000000000000 0.0000000000000000 Zr
atom_frac 0.5000000000000000 0.5000000000000000 0.0000000000000000 Zr
atom_frac -0.0000000000000000 0.0000000000000000 0.4999999999999999 Zr
atom_frac -0.0000000000000000 0.5000000000000000 0.4999999999999999 Zr
atom_frac 0.7097638077670000 0.0333933908590000 0.7095170075269999 S
atom_frac 0.7097638077670000 0.4666066091410000 0.7095170075269999 S
atom_frac 0.2902361922330000 0.9666066091409999 0.2904829924730000 S
atom_frac 0.2902361922330000 0.5333933908589999 0.2904829924730000 S
atom_frac 0.7902305889290000 0.9665098216530000 0.2095209646490000 S
atom_frac 0.7902305889290000 0.5334901783470000 0.2095209646490000 S
atom_frac 0.2097694110710000 0.0334901783470000 0.7904790353509998 S
atom_frac 0.2097694110710000 0.4665098216530000 0.7904790353509998 S
atom_frac 0.4945132453330000 0.7499999999999999 0.9363192558750000 S
atom_frac 0.5054867546670000 0.2500000000000000 0.0636807441250000 S
atom_frac 0.9946507518340000 0.7499999999999999 0.5636517617140000 S
atom_frac 0.0053492481660000 0.2500000000000000 0.4363482382860000 S
