#=======================================================
# FHI-aims file: /mnt/lustre/a2fs-work2/work/e05/e05/prakaya/chalcogenide_perovskites/redo/ternary/tilted_perovskites/BaZrS3_tilt_15/relaxation/geometry.in.next_step
# Created using the Atomic Simulation Environment (ASE)
# Sun Mar 24 14:01:05 2024

# Additional information:
#  Relaxed with BFGS, fmax=1.000 meV/AA
#  nsteps = 34
#  residual force  = 0.049942 meV/AA
#  residual stress = 0.636572 meV/AA
#=======================================================
lattice_vector 6.1455366561510001 -3.4569309412139999 0.1117939605550000 
lattice_vector 6.1455366561510001 3.4569309412139999 0.1117939605550000 
lattice_vector -3.9916240806280001 -0.0000000000000000 5.6456683822700002 
atom_frac 0.7498588848640001 0.2501411151359999 0.7499999999999999 Ba
atom_frac 0.2501411151360001 0.7498588848640000 0.2500000000000000 Ba
atom_frac 0.5000000000000000 0.0000000000000000 0.0000000000000000 Zr
atom_frac 0.0000000000000000 0.5000000000000000 0.4999999999999999 Zr
atom_frac 0.8090397335430002 0.6912113270750000 0.8090351206820000 S
atom_frac 0.1909602664570001 0.3087886729250000 0.1909648793180000 S
atom_frac 0.3087886729250001 0.1909602664570000 0.6909648793180000 S
atom_frac 0.6912113270750000 0.8090397335429999 0.3090351206820000 S
atom_frac 0.7496810634060000 0.2503189365940000 0.2500000000000000 S
atom_frac 0.2503189365940002 0.7496810634059998 0.7499999999999999 S
