#=======================================================
# FHI-aims file: /mnt/lustre/a2fs-work2/work/e05/e05/prakaya/chalcogenide_perovskites/redo/ternary/tilted_perovskites/BaZrS3_tilt_127/relaxation/geometry.in.next_step
# Created using the Atomic Simulation Environment (ASE)
# Sun Mar 24 14:43:20 2024

# Additional information:
#  Relaxed with BFGS, fmax=1.000 meV/AA
#  nsteps = 14
#  residual force  = 0.022832 meV/AA
#  residual stress = 0.307267 meV/AA
#=======================================================
lattice_vector 6.9209805085270002 -0.0000000000000000 0.0000000000000000 
lattice_vector 0.0000000000000000 6.9209805085270002 0.0000000000000000 
lattice_vector -0.0000000000000000 0.0000000000000000 5.0910904871140001 
atom_frac 0.0000000000000000 0.5000000000000000 0.0000000000000000 Ba
atom_frac 0.5000000000000000 0.0000000000000000 0.0000000000000000 Ba
atom_frac 0.0000000000000000 0.0000000000000000 0.4999999999999999 Zr
atom_frac 0.5000000000000000 0.5000000000000000 0.4999999999999999 Zr
atom_frac 0.0000000000000000 0.0000000000000000 0.0000000000000000 S
atom_frac 0.5000000000000000 0.5000000000000000 0.0000000000000000 S
atom_frac 0.3062700411090000 0.8062700411090001 0.4999999999999999 S
atom_frac 0.6937299588910000 0.1937299588910000 0.4999999999999999 S
atom_frac 0.8062700411090001 0.6937299588910000 0.4999999999999999 S
atom_frac 0.1937299588910000 0.3062700411090000 0.4999999999999999 S
