#=======================================================
# FHI-aims file: /mnt/lustre/a2fs-work2/work/e05/e05/prakaya/chalcogenide_perovskites/redo/ternary/tilted_perovskites/BaZrS3_tilt_62/relaxation/geometry.in.next_step
# Created using the Atomic Simulation Environment (ASE)
# Sun Mar 24 14:49:47 2024

# Additional information:
#  Relaxed with BFGS, fmax=1.000 meV/AA
#  nsteps = 5
#  residual force  = 0.008087 meV/AA
#  residual stress = 0.151276 meV/AA
#=======================================================
lattice_vector 7.0729953411670001 -0.0000000000000000 0.0000000000000000 
lattice_vector 0.0000000000000000 9.9271370448089993 0.0000000000000000 
lattice_vector 0.0000000000000000 0.0000000000000000 6.9499392683789996 
atom_frac 0.0505850122330000 0.7499999999999999 0.0111641606950000 Ba
atom_frac -0.0505850122330000 0.2500000000000000 -0.0111641606950000 Ba
atom_frac 0.5505850122330000 0.7499999999999999 0.4888358393050000 Ba
atom_frac 0.4494149877670000 0.2500000000000000 0.5111641606950000 Ba
atom_frac 0.5000000000000000 0.0000000000000000 0.0000000000000000 Zr
atom_frac 0.5000000000000000 0.5000000000000000 0.0000000000000000 Zr
atom_frac 0.0000000000000000 0.0000000000000000 0.5000000000000000 Zr
atom_frac 0.0000000000000000 0.5000000000000000 0.5000000000000000 Zr
atom_frac 0.7098010392960000 0.0334690226050000 0.7095536736340000 S
atom_frac 0.7098010392960000 0.4665309773950000 0.7095536736340000 S
atom_frac 0.2901989607040000 0.9665309773949999 0.2904463263660000 S
atom_frac 0.2901989607040000 0.5334690226050000 0.2904463263660000 S
atom_frac 0.7901989607040000 0.9665309773949999 0.2095536736340000 S
atom_frac 0.7901989607040000 0.5334690226050000 0.2095536736340000 S
atom_frac 0.2098010392960000 0.0334690226050000 0.7904463263660000 S
atom_frac 0.2098010392960000 0.4665309773950000 0.7904463263660000 S
atom_frac 0.4945594743010000 0.7499999999999999 0.9363035490960001 S
atom_frac 0.5054405256990000 0.2500000000000000 0.0636964509040000 S
atom_frac -0.0054405256990000 0.7499999999999999 0.5636964509040000 S
atom_frac 0.0054405256990000 0.2500000000000000 0.4363035490960000 S
