#=======================================================
# FHI-aims file: /mnt/lustre/a2fs-work2/work/e05/e05/prakaya/chalcogenide_perovskites/redo/ternary/tilted_perovskites/BaZrS3_tilt_140/relaxation/geometry.in.next_step
# Created using the Atomic Simulation Environment (ASE)
# Sun Mar 24 13:55:19 2024

# Additional information:
#  Relaxed with BFGS, fmax=1.000 meV/AA
#  nsteps = 14
#  residual force  = 0.011251 meV/AA
#  residual stress = 0.099647 meV/AA
#=======================================================
lattice_vector -3.4572286329230000 3.4572286329230000 5.0835326989400000 
lattice_vector 3.4572286329230000 -3.4572286329230000 5.0835326989400000 
lattice_vector 3.4572286329230000 3.4572286329230000 -5.0835326989400000 
atom_frac 0.7499999999999999 0.2500000000000000 0.5000000000000000 Ba
atom_frac 0.2499999999999999 0.7500000000000001 0.5000000000000000 Ba
atom_frac 0.0000000000000000 -0.0000000000000000 0.0000000000000000 Zr
atom_frac 0.4999999999999999 0.5000000000000000 0.0000000000000000 Zr
atom_frac 0.7500000000000000 0.7499999999999999 0.0000000000000000 S
atom_frac 0.2500000000000000 0.2500000000000000 0.0000000000000000 S
atom_frac 0.8089693710620000 0.6910306289380002 0.5000000000000000 S
atom_frac 0.1910306289380000 0.3089693710620000 0.5000000000000000 S
atom_frac 0.3089693710619999 0.8089693710620000 0.1179387421239999 S
atom_frac 0.6910306289379999 0.1910306289380001 0.8820612578760001 S
