#=======================================================
# FHI-aims file: /mnt/lustre/a2fs-work2/work/e05/e05/prakaya/chalcogenide_perovskites/redo/ternary/tilted_perovskites/BaZrS3_tilt_74/relaxation/geometry.in.next_step
# Created using the Atomic Simulation Environment (ASE)
# Sun Mar 24 14:39:19 2024

# Additional information:
#  Relaxed with BFGS, fmax=1.000 meV/AA
#  nsteps = 22
#  residual force  = 0.048835 meV/AA
#  residual stress = 0.281202 meV/AA
#=======================================================
lattice_vector -3.4864502887110000 4.9225758992420001 3.5619238499949999 
lattice_vector 3.4864502887110000 -4.9225758992420001 3.5619238499949999 
lattice_vector 3.4864502887110000 4.9225758992420001 -3.5619238499949999 
atom_frac 0.7573189890639999 0.0073189890639999 0.7500000000000001 Ba
atom_frac 0.2426810109360000 -0.0073189890640000 0.2500000000000000 Ba
atom_frac -0.0000000000000001 0.4999999999999999 0.5000000000000000 Zr
atom_frac 0.4999999999999999 0.4999999999999999 0.0000000000000000 Zr
atom_frac 0.7890342380659997 0.4999999999999999 0.7890342380660001 S
atom_frac 0.2109657619340000 0.5000000000000000 0.2109657619340000 S
atom_frac 0.2109657619339999 0.0000000000000000 0.7109657619340001 S
atom_frac 0.7890342380660001 0.0000000000000001 0.2890342380660000 S
atom_frac 0.6778635937359999 0.4278635937360000 0.2500000000000000 S
atom_frac 0.3221364062639999 0.5721364062640000 0.7500000000000001 S
