#=======================================================
# FHI-aims file: /mnt/lustre/a2fs-work2/work/e05/e05/prakaya/chalcogenide_perovskites/redo/ternary/tilted_perovskites/BaZrS3_tilt_137/relaxation/geometry.in.next_step
# Created using the Atomic Simulation Environment (ASE)
# Sun Mar 24 15:36:31 2024

# Additional information:
#  Relaxed with BFGS, fmax=1.000 meV/AA
#  nsteps = 12
#  residual force  = 0.022934 meV/AA
#  residual stress = 0.573288 meV/AA
#=======================================================
lattice_vector 9.7780117944570009 -0.0000000000000000 0.0000000000000000 
lattice_vector -0.0000000000000000 9.7780117944570009 -0.0000000000000000 
lattice_vector -0.0000000000000000 -0.0000000000000000 10.1629519680789997 
atom_frac 0.0000000000000000 0.5000000000000000 0.0000007322440000 Ba
atom_frac 0.5000000000000000 0.5000000000000000 0.0000000000000000 Ba
atom_frac 0.0000000000000000 0.0000000000000000 0.0000000000000000 Ba
atom_frac 0.5000000000000000 0.0000000000000000 -0.0000007322440000 Ba
atom_frac 0.0000000000000000 0.5000000000000000 0.5000007322440000 Ba
atom_frac 0.5000000000000000 0.5000000000000000 0.5000000000000000 Ba
atom_frac 0.0000000000000000 0.0000000000000000 0.5000000000000000 Ba
atom_frac 0.5000000000000000 0.0000000000000000 0.4999992677560000 Ba
atom_frac 0.2500000000000000 0.7500000000000000 0.2500000000000000 Zr
atom_frac 0.7500000000000000 0.7500000000000000 0.2500000000000000 Zr
atom_frac 0.2500000000000000 0.2500000000000000 0.2500000000000000 Zr
atom_frac 0.7500000000000000 0.2500000000000000 0.2500000000000000 Zr
atom_frac 0.2500000000000000 0.7500000000000000 0.7500000000000000 Zr
atom_frac 0.7500000000000000 0.7500000000000000 0.7500000000000000 Zr
atom_frac 0.2500000000000000 0.2500000000000000 0.7500000000000000 Zr
atom_frac 0.7500000000000000 0.2500000000000000 0.7500000000000000 Zr
atom_frac 0.2500009213980000 0.7499990786019999 0.0000000000000000 S
atom_frac 0.7499990786019999 0.7499990786019999 0.0000000000000000 S
atom_frac 0.2500009213980000 0.2500009213980000 0.0000000000000000 S
atom_frac 0.7499990786019999 0.2500009213980000 0.0000000000000000 S
atom_frac 0.2499990786020000 0.7500009213980000 0.5000000000000000 S
atom_frac 0.7500009213980000 0.7500009213980000 0.5000000000000000 S
atom_frac 0.2499990786020000 0.2499990786020000 0.5000000000000000 S
atom_frac 0.7500009213980000 0.2499990786020000 0.5000000000000000 S
atom_frac 0.1911910435440000 0.5000000000000000 0.2500005369320000 S
atom_frac 0.8088089564560000 0.5000000000000000 0.2500005369320000 S
atom_frac 0.3088089564560000 0.0000000000000000 0.2499994630680000 S
atom_frac 0.6911910435440000 0.0000000000000000 0.2499994630680000 S
atom_frac 0.3088092778840000 0.5000000000000000 0.7499995181660000 S
atom_frac 0.6911907221160000 0.5000000000000000 0.7499995181660000 S
atom_frac 0.1911907221160000 0.0000000000000000 0.7500004818340000 S
atom_frac 0.8088092778840000 0.0000000000000000 0.7500004818340000 S
atom_frac 0.0000000000000000 0.8088092778840000 0.2499995181660000 S
atom_frac 0.5000000000000000 0.6911907221160000 0.2500004818340000 S
atom_frac 0.0000000000000000 0.1911907221160000 0.2499995181660000 S
atom_frac 0.5000000000000000 0.3088092778840000 0.2500004818340000 S
atom_frac 0.0000000000000000 0.6911910435440000 0.7500005369320000 S
atom_frac 0.5000000000000000 0.8088089564560000 0.7499994630670000 S
atom_frac 0.0000000000000000 0.3088089564560000 0.7500005369320000 S
atom_frac 0.5000000000000000 0.1911910435440000 0.7499994630670000 S
