#=======================================================
# FHI-aims file: /mnt/lustre/a2fs-work2/work/e05/e05/prakaya/chalcogenide_perovskites/redo/ternary/tilted_perovskites/BaZrS3_tilt_63/relaxation/geometry.in.next_step
# Created using the Atomic Simulation Environment (ASE)
# Sun Mar 24 14:48:20 2024

# Additional information:
#  Relaxed with BFGS, fmax=1.000 meV/AA
#  nsteps = 19
#  residual force  = 0.364969 meV/AA
#  residual stress = 0.821060 meV/AA
#=======================================================
lattice_vector 4.8889702524400001 -5.0815520849259999 0.0000000000000000 
lattice_vector 4.8889702524400001 5.0815520849259999 0.0000000000000000 
lattice_vector 0.0000000000000000 0.0000000000000000 9.7778709386239999 
atom_frac -0.0000202012480000 0.0000202012480000 0.7500000000000000 Ba
atom_frac 0.4999993292310000 0.5000006707690000 0.7500000000000000 Ba
atom_frac 0.0000202012480000 -0.0000202012480000 0.2500000000000000 Ba
atom_frac 0.5000006707690000 0.4999993292310000 0.2500000000000000 Ba
atom_frac -0.0000000000000000 0.5000000000000000 0.5000000000000000 Zr
atom_frac 0.5000000000000000 0.0000000000000000 0.5000000000000000 Zr
atom_frac -0.0000000000000000 0.5000000000000000 0.0000000000000000 Zr
atom_frac 0.5000000000000000 0.0000000000000000 0.0000000000000000 Zr
atom_frac 0.2500246338380000 0.2500246338380000 0.5000000000000000 S
atom_frac 0.7499753661620000 0.7499753661620000 0.5000000000000000 S
atom_frac 0.2500246338380000 0.2500246338380000 0.0000000000000000 S
atom_frac 0.7499753661620000 0.7499753661620000 0.0000000000000000 S
atom_frac 0.9411786392160000 0.4411922328380001 0.7500000000000000 S
atom_frac 0.5588077671620000 0.0588213607840000 0.7500000000000000 S
atom_frac 0.0588213607840000 0.5588077671620000 0.2500000000000000 S
atom_frac 0.4411922328380001 0.9411786392160001 0.2500000000000000 S
atom_frac 0.7500206817630000 0.2499793182370000 0.4411777333960000 S
atom_frac 0.2499793182370000 0.7500206817630000 0.5588222666039999 S
atom_frac 0.7500206817630000 0.2499793182370000 0.0588222666040000 S
atom_frac 0.2499793182370000 0.7500206817630000 0.9411777333959999 S
