#=======================================================
# FHI-aims file: /mnt/lustre/a2fs-work2/work/e05/e05/prakaya/chalcogenide_perovskites/redo/ternary/tilted_perovskites/BaZrS3_tilt_12/relaxation/geometry.in.next_step
# Created using the Atomic Simulation Environment (ASE)
# Sun Mar 24 14:28:15 2024

# Additional information:
#  Relaxed with BFGS, fmax=1.000 meV/AA
#  nsteps = 42
#  residual force  = 0.130750 meV/AA
#  residual stress = 0.579614 meV/AA
#=======================================================
lattice_vector 5.0815787571779998 -4.8889489860950004 -0.0000012380760000 
lattice_vector 5.0815787571779998 4.8889489860950004 -0.0000012380760000 
lattice_vector -5.0815799952539997 0.0000000000000000 4.8889213452940004 
atom_frac 0.7499993439580001 0.7499993439580001 -0.0000118156280000 Ba
atom_frac 0.2500006560420000 0.2500006560420000 0.0000118156280000 Ba
atom_frac 0.0000000000000000 0.5000000000000000 0.5000000000000000 Zr
atom_frac 0.5000000000000000 0.0000000000000000 0.5000000000000000 Zr
atom_frac 0.2500057657340000 0.7499942342660000 0.5000000000000000 S
atom_frac 0.7499942342660000 0.2500057657340000 0.5000000000000000 S
atom_frac 0.3088181008620000 0.6911818991380000 0.0000000000000000 S
atom_frac 0.6911818991380000 0.3088181008620000 0.0000000000000000 S
atom_frac 0.1911805481150000 0.1911805481150000 0.3823705619430001 S
atom_frac 0.8088194518839998 0.8088194518840002 0.6176294380570001 S
