#=======================================================
# FHI-aims file: /mnt/lustre/a2fs-work2/work/e05/e05/prakaya/chalcogenide_perovskites/redo/ternary/tilted_perovskites/BaZrS3_tilt_204/relaxation/geometry.in.next_step
# Created using the Atomic Simulation Environment (ASE)
# Sun Mar 24 14:37:55 2024

# Additional information:
#  Relaxed with BFGS, fmax=1.000 meV/AA
#  nsteps = 16
#  residual force  = 0.615231 meV/AA
#  residual stress = 0.175432 meV/AA
#=======================================================
lattice_vector -4.9727391083810000 4.9727391083810000 4.9727391083810000 
lattice_vector 4.9727391083810000 -4.9727391083810000 4.9727391083810000 
lattice_vector 4.9727391083810000 4.9727391083810000 -4.9727391083810000 
atom_frac -0.0000000000000000 0.0000000000000000 0.0000000000000000 Ba
atom_frac -0.0000000000000000 0.5000000000000000 0.5000000000000000 Ba
atom_frac 0.5000000000000000 0.0000000000000000 0.5000000000000000 Ba
atom_frac 0.5000000000000000 0.5000000000000000 0.0000000000000000 Ba
atom_frac 0.5000000000000000 0.5000000000000000 0.5000000000000000 Zr
atom_frac 0.5000000000000000 0.0000000000000000 0.0000000000000000 Zr
atom_frac -0.0000000000000000 0.5000000000000000 0.0000000000000000 Zr
atom_frac -0.0000000000000000 0.0000000000000000 0.5000000000000000 Zr
atom_frac 0.2739613736099999 0.2233351169970000 0.4972964906060000 S
atom_frac 0.2739613736100001 0.7766648830030000 0.0506262566130000 S
atom_frac 0.7260386263900001 0.2233351169970000 0.9493737433870000 S
atom_frac 0.7260386263900001 0.7766648830030000 0.5027035093930000 S
atom_frac 0.2233351169970001 0.4972964906060000 0.2739613736100000 S
atom_frac 0.2233351169970000 0.9493737433870000 0.7260386263900001 S
atom_frac 0.7766648830030000 0.5027035093930000 0.7260386263900001 S
atom_frac 0.7766648830030000 0.0506262566130000 0.2739613736100000 S
atom_frac 0.4972964906060000 0.2739613736099999 0.2233351169970000 S
atom_frac 0.5027035093930000 0.7260386263900001 0.7766648830030000 S
atom_frac 0.0506262566130000 0.2739613736100000 0.7766648830030000 S
atom_frac 0.9493737433870000 0.7260386263900001 0.2233351169970000 S
