#=======================================================
# FHI-aims file: geometry.in
# Created using the Atomic Simulation Environment (ASE)
# Sat Mar 23 17:07:35 2024
#=======================================================
lattice_vector 8.5000000000000000 0.0000000000000000 0.0000000000000000 
lattice_vector 0.0000000000000000 8.5000000000000000 0.0000000000000000 
lattice_vector 0.0000000000000000 0.0000000000000000 8.5000000000000000 
atom 0.0000000000000000 0.0000000000000000 0.0000000000000000 Ba
atom 4.2500000000000000 0.0000000000000000 0.0000000000000000 Ba
atom 0.0000000000000000 4.2500000000000000 0.0000000000000000 Ba
atom 4.2500000000000000 4.2500000000000000 0.0000000000000000 Ba
atom 0.0000000000000000 0.0000000000000000 4.2500000000000000 Ba
atom 4.2500000000000000 0.0000000000000000 4.2500000000000000 Ba
atom 0.0000000000000000 4.2500000000000000 4.2500000000000000 Ba
atom 4.2500000000000000 4.2500000000000000 4.2500000000000000 Ba
atom 2.1250000000000000 2.1250000000000000 2.1250000000000000 Zr
atom 6.3750000000000000 2.1250000000000000 2.1250000000000000 Zr
atom 2.1250000000000000 6.3750000000000000 2.1250000000000000 Zr
atom 6.3750000000000000 6.3750000000000000 2.1250000000000000 Zr
atom 2.1250000000000000 2.1250000000000000 6.3750000000000000 Zr
atom 6.3750000000000000 2.1250000000000000 6.3750000000000000 Zr
atom 2.1250000000000000 6.3750000000000000 6.3750000000000000 Zr
atom 6.3750000000000000 6.3750000000000000 6.3750000000000000 Zr
atom 2.1250000000000000 2.1250000000000000 0.0000000000000000 S
atom 6.3750000000000000 2.1250000000000000 0.0000000000000000 S
atom 2.1250000000000000 6.3750000000000000 0.0000000000000000 S
atom 6.3750000000000000 6.3750000000000000 0.0000000000000000 S
atom 2.1250000000000000 2.1250000000000000 4.2500000000000000 S
atom 6.3750000000000000 2.1250000000000000 4.2500000000000000 S
atom 2.1250000000000000 6.3750000000000000 4.2500000000000000 S
atom 6.3750000000000000 6.3750000000000000 4.2500000000000000 S
atom 3.1250000000000000 0.0000000000000000 2.1250000000000000 S
atom 5.3750000000000000 0.0000000000000000 2.1250000000000000 S
atom 1.1250000000000000 4.2500000000000000 2.1250000000000000 S
atom 7.3750000000000000 4.2500000000000000 2.1250000000000000 S
atom 3.1250000000000000 0.0000000000000000 6.3750000000000000 S
atom 5.3750000000000000 0.0000000000000000 6.3750000000000000 S
atom 1.1250000000000000 4.2500000000000000 6.3750000000000000 S
atom 7.3750000000000000 4.2500000000000000 6.3750000000000000 S
atom 0.0000000000000000 1.1250000000000000 2.1250000000000000 S
atom 4.2500000000000000 3.1250000000000000 2.1250000000000000 S
atom 0.0000000000000000 7.3750000000000000 2.1250000000000000 S
atom 4.2500000000000000 5.3750000000000000 2.1250000000000000 S
atom 0.0000000000000000 1.1250000000000000 6.3750000000000000 S
atom 4.2500000000000000 3.1250000000000000 6.3750000000000000 S
atom 0.0000000000000000 7.3750000000000000 6.3750000000000000 S
atom 4.2500000000000000 5.3750000000000000 6.3750000000000000 S
