#=======================================================
# FHI-aims file: RP_3_134.in
# Created using the Atomic Simulation Environment (ASE)
# Mon Nov  4 16:03:14 2024
#=======================================================
lattice_vector 10.0000000000000000 0.0000000000000000 0.0000000000000000 
lattice_vector 0.0000000000000000 10.0000000000000000 0.0000000000000000 
lattice_vector 0.0000000000000000 0.0000000000000000 36.0000000000000000 
atom 0.0000000000000000 0.0000000000000000 0.0000000000000000 Ba
atom 5.0000000000000000 0.0000000000000000 0.0000000000000000 Ba
atom 0.0000000000000000 5.0000000000000000 0.0000000000000000 Ba
atom 5.0000000000000000 5.0000000000000000 0.0000000000000000 Ba
atom 0.0000000000000000 0.0000000000000000 5.0000000000000000 Ba
atom 5.0000000000000000 0.0000000000000000 5.0000000000000000 Ba
atom 0.0000000000000000 5.0000000000000000 5.0000000000000000 Ba
atom 5.0000000000000000 5.0000000000000000 5.0000000000000000 Ba
atom 2.5000000000000000 2.5000000000000000 2.5000000000000000 Zr
atom 7.5000000000000000 2.5000000000000000 2.5000000000000000 Zr
atom 2.5000000000000000 7.5000000000000000 2.5000000000000000 Zr
atom 7.5000000000000000 7.5000000000000000 2.5000000000000000 Zr
atom 2.5000000000000000 2.5000000000000000 7.5000000000000000 Zr
atom 7.5000000000000000 2.5000000000000000 7.5000000000000000 Zr
atom 2.5000000000000000 7.5000000000000000 7.5000000000000000 Zr
atom 7.5000000000000000 7.5000000000000000 7.5000000000000000 Zr
atom 2.5000000000000000 3.5000000000000000 0.0000000000000000 S
atom 7.5000000000000000 1.5000000000000000 0.0000000000000000 S
atom 2.5000000000000000 6.5000000000000000 0.0000000000000000 S
atom 7.5000000000000000 8.5000000000000000 0.0000000000000000 S
atom 2.5000000000000000 1.5000000000000000 5.0000000000000000 S
atom 7.5000000000000000 3.5000000000000000 5.0000000000000000 S
atom 2.5000000000000000 8.5000000000000000 5.0000000000000000 S
atom 7.5000000000000000 6.5000000000000000 5.0000000000000000 S
atom 2.5000000000000000 0.0000000000000000 1.5000000000000000 S
atom 7.5000000000000000 0.0000000000000000 3.5000000000000000 S
atom 2.5000000000000000 5.0000000000000000 3.5000000000000000 S
atom 7.5000000000000000 5.0000000000000000 1.5000000000000000 S
atom 2.5000000000000000 0.0000000000000000 8.5000000000000000 S
atom 7.5000000000000000 0.0000000000000000 6.5000000000000000 S
atom 2.5000000000000000 5.0000000000000000 6.5000000000000000 S
atom 7.5000000000000000 5.0000000000000000 8.5000000000000000 S
atom 0.0000000000000000 2.5000000000000000 2.5000000000000000 S
atom 5.0000000000000000 2.5000000000000000 2.5000000000000000 S
atom 0.0000000000000000 7.5000000000000000 2.5000000000000000 S
atom 5.0000000000000000 7.5000000000000000 2.5000000000000000 S
atom 0.0000000000000000 2.5000000000000000 7.5000000000000000 S
atom 5.0000000000000000 2.5000000000000000 7.5000000000000000 S
atom 0.0000000000000000 7.5000000000000000 7.5000000000000000 S
atom 5.0000000000000000 7.5000000000000000 7.5000000000000000 S
atom 0.0000000000000000 0.0000000000000000 10.0000000000000000 Ba
atom 5.0000000000000000 0.0000000000000000 10.0000000000000000 Ba
atom 0.0000000000000000 5.0000000000000000 10.0000000000000000 Ba
atom 5.0000000000000000 5.0000000000000000 10.0000000000000000 Ba
atom 0.0000000000000000 0.0000000000000000 15.0000000000000000 Ba
atom 5.0000000000000000 0.0000000000000000 15.0000000000000000 Ba
atom 0.0000000000000000 5.0000000000000000 15.0000000000000000 Ba
atom 5.0000000000000000 5.0000000000000000 15.0000000000000000 Ba
atom 2.5000000000000000 2.5000000000000000 12.5000000000000000 Zr
atom 7.5000000000000000 2.5000000000000000 12.5000000000000000 Zr
atom 2.5000000000000000 7.5000000000000000 12.5000000000000000 Zr
atom 7.5000000000000000 7.5000000000000000 12.5000000000000000 Zr
atom 2.5000000000000000 3.5000000000000000 10.0000000000000000 S
atom 7.5000000000000000 1.5000000000000000 10.0000000000000000 S
atom 2.5000000000000000 6.5000000000000000 10.0000000000000000 S
atom 7.5000000000000000 8.5000000000000000 10.0000000000000000 S
atom 2.5000000000000000 1.5000000000000000 15.0000000000000000 S
atom 7.5000000000000000 3.5000000000000000 15.0000000000000000 S
atom 2.5000000000000000 8.5000000000000000 15.0000000000000000 S
atom 7.5000000000000000 6.5000000000000000 15.0000000000000000 S
atom 2.5000000000000000 0.0000000000000000 11.5000000000000000 S
atom 7.5000000000000000 0.0000000000000000 13.5000000000000000 S
atom 2.5000000000000000 5.0000000000000000 13.5000000000000000 S
atom 7.5000000000000000 5.0000000000000000 11.5000000000000000 S
atom 0.0000000000000000 2.5000000000000000 12.5000000000000000 S
atom 5.0000000000000000 2.5000000000000000 12.5000000000000000 S
atom 0.0000000000000000 7.5000000000000000 12.5000000000000000 S
atom 5.0000000000000000 7.5000000000000000 12.5000000000000000 S
atom 2.5000000000000000 2.5000000000000000 18.0000000000000000 Ba
atom 7.5000000000000000 2.5000000000000000 18.0000000000000000 Ba
atom 2.5000000000000000 7.5000000000000000 18.0000000000000000 Ba
atom 7.5000000000000000 7.5000000000000000 18.0000000000000000 Ba
atom 2.5000000000000000 2.5000000000000000 23.0000000000000000 Ba
atom 7.5000000000000000 2.5000000000000000 23.0000000000000000 Ba
atom 2.5000000000000000 7.5000000000000000 23.0000000000000000 Ba
atom 7.5000000000000000 7.5000000000000000 23.0000000000000000 Ba
atom 5.0000000000000000 5.0000000000000000 20.5000000000000000 Zr
atom 10.0000000000000000 5.0000000000000000 20.5000000000000000 Zr
atom 5.0000000000000000 10.0000000000000000 20.5000000000000000 Zr
atom 10.0000000000000000 10.0000000000000000 20.5000000000000000 Zr
atom 5.0000000000000000 5.0000000000000000 25.5000000000000000 Zr
atom 10.0000000000000000 5.0000000000000000 25.5000000000000000 Zr
atom 5.0000000000000000 10.0000000000000000 25.5000000000000000 Zr
atom 10.0000000000000000 10.0000000000000000 25.5000000000000000 Zr
atom 6.0000000000000000 5.0000000000000000 18.0000000000000000 S
atom 9.0000000000000000 5.0000000000000000 18.0000000000000000 S
atom 4.0000000000000000 10.0000000000000000 18.0000000000000000 S
atom 11.0000000000000000 10.0000000000000000 18.0000000000000000 S
atom 4.0000000000000000 5.0000000000000000 23.0000000000000000 S
atom 11.0000000000000000 5.0000000000000000 23.0000000000000000 S
atom 6.0000000000000000 10.0000000000000000 23.0000000000000000 S
atom 9.0000000000000000 10.0000000000000000 23.0000000000000000 S
atom 5.0000000000000000 2.5000000000000000 20.5000000000000000 S
atom 10.0000000000000000 2.5000000000000000 20.5000000000000000 S
atom 5.0000000000000000 7.5000000000000000 20.5000000000000000 S
atom 10.0000000000000000 7.5000000000000000 20.5000000000000000 S
atom 5.0000000000000000 2.5000000000000000 25.5000000000000000 S
atom 10.0000000000000000 2.5000000000000000 25.5000000000000000 S
atom 5.0000000000000000 7.5000000000000000 25.5000000000000000 S
atom 10.0000000000000000 7.5000000000000000 25.5000000000000000 S
atom 2.5000000000000000 5.0000000000000000 19.5000000000000000 S
atom 7.5000000000000000 5.0000000000000000 21.5000000000000000 S
atom 2.5000000000000000 10.0000000000000000 21.5000000000000000 S
atom 7.5000000000000000 10.0000000000000000 19.5000000000000000 S
atom 2.5000000000000000 5.0000000000000000 26.5000000000000000 S
atom 7.5000000000000000 5.0000000000000000 24.5000000000000000 S
atom 2.5000000000000000 10.0000000000000000 24.5000000000000000 S
atom 7.5000000000000000 10.0000000000000000 26.5000000000000000 S
atom 2.5000000000000000 2.5000000000000000 28.0000000000000000 Ba
atom 7.5000000000000000 2.5000000000000000 28.0000000000000000 Ba
atom 2.5000000000000000 7.5000000000000000 28.0000000000000000 Ba
atom 7.5000000000000000 7.5000000000000000 28.0000000000000000 Ba
atom 2.5000000000000000 2.5000000000000000 33.0000000000000000 Ba
atom 7.5000000000000000 2.5000000000000000 33.0000000000000000 Ba
atom 2.5000000000000000 7.5000000000000000 33.0000000000000000 Ba
atom 7.5000000000000000 7.5000000000000000 33.0000000000000000 Ba
atom 5.0000000000000000 5.0000000000000000 30.5000000000000000 Zr
atom 10.0000000000000000 5.0000000000000000 30.5000000000000000 Zr
atom 5.0000000000000000 10.0000000000000000 30.5000000000000000 Zr
atom 10.0000000000000000 10.0000000000000000 30.5000000000000000 Zr
atom 6.0000000000000000 5.0000000000000000 28.0000000000000000 S
atom 9.0000000000000000 5.0000000000000000 28.0000000000000000 S
atom 4.0000000000000000 10.0000000000000000 28.0000000000000000 S
atom 11.0000000000000000 10.0000000000000000 28.0000000000000000 S
atom 4.0000000000000000 5.0000000000000000 33.0000000000000000 S
atom 11.0000000000000000 5.0000000000000000 33.0000000000000000 S
atom 6.0000000000000000 10.0000000000000000 33.0000000000000000 S
atom 9.0000000000000000 10.0000000000000000 33.0000000000000000 S
atom 5.0000000000000000 2.5000000000000000 30.5000000000000000 S
atom 10.0000000000000000 2.5000000000000000 30.5000000000000000 S
atom 5.0000000000000000 7.5000000000000000 30.5000000000000000 S
atom 10.0000000000000000 7.5000000000000000 30.5000000000000000 S
atom 2.5000000000000000 5.0000000000000000 29.5000000000000000 S
atom 7.5000000000000000 5.0000000000000000 31.5000000000000000 S
atom 2.5000000000000000 10.0000000000000000 31.5000000000000000 S
atom 7.5000000000000000 10.0000000000000000 29.5000000000000000 S
