#=======================================================
# FHI-aims file: RP_5_139.in
# Created using the Atomic Simulation Environment (ASE)
# Mon Nov 11 16:15:50 2024
#=======================================================
lattice_vector 10.0000000000000000 0.0000000000000000 0.0000000000000000 
lattice_vector 0.0000000000000000 10.0000000000000000 0.0000000000000000 
lattice_vector 0.0000000000000000 0.0000000000000000 56.0000000000000000 
atom 0.0000000000000000 0.0000000000000000 0.0000000000000000 Ba
atom 5.0000000000000000 0.0000000000000000 0.0000000000000000 Ba
atom 0.0000000000000000 5.0000000000000000 0.0000000000000000 Ba
atom 5.0000000000000000 5.0000000000000000 0.0000000000000000 Ba
atom 0.0000000000000000 0.0000000000000000 5.0000000000000000 Ba
atom 5.0000000000000000 0.0000000000000000 5.0000000000000000 Ba
atom 0.0000000000000000 5.0000000000000000 5.0000000000000000 Ba
atom 5.0000000000000000 5.0000000000000000 5.0000000000000000 Ba
atom 2.5000000000000000 2.5000000000000000 2.5000000000000000 Zr
atom 7.5000000000000000 2.5000000000000000 2.5000000000000000 Zr
atom 2.5000000000000000 7.5000000000000000 2.5000000000000000 Zr
atom 7.5000000000000000 7.5000000000000000 2.5000000000000000 Zr
atom 2.5000000000000000 2.5000000000000000 7.5000000000000000 Zr
atom 7.5000000000000000 2.5000000000000000 7.5000000000000000 Zr
atom 2.5000000000000000 7.5000000000000000 7.5000000000000000 Zr
atom 7.5000000000000000 7.5000000000000000 7.5000000000000000 Zr
atom 2.5000000000000000 2.5000000000000000 0.0000000000000000 S
atom 7.5000000000000000 2.5000000000000000 0.0000000000000000 S
atom 2.5000000000000000 7.5000000000000000 0.0000000000000000 S
atom 7.5000000000000000 7.5000000000000000 0.0000000000000000 S
atom 2.5000000000000000 2.5000000000000000 5.0000000000000000 S
atom 7.5000000000000000 2.5000000000000000 5.0000000000000000 S
atom 2.5000000000000000 7.5000000000000000 5.0000000000000000 S
atom 7.5000000000000000 7.5000000000000000 5.0000000000000000 S
atom 2.5000000000000000 0.0000000000000000 2.5000000000000000 S
atom 7.5000000000000000 0.0000000000000000 2.5000000000000000 S
atom 2.5000000000000000 5.0000000000000000 2.5000000000000000 S
atom 7.5000000000000000 5.0000000000000000 2.5000000000000000 S
atom 2.5000000000000000 0.0000000000000000 7.5000000000000000 S
atom 7.5000000000000000 0.0000000000000000 7.5000000000000000 S
atom 2.5000000000000000 5.0000000000000000 7.5000000000000000 S
atom 7.5000000000000000 5.0000000000000000 7.5000000000000000 S
atom 0.0000000000000000 2.5000000000000000 2.5000000000000000 S
atom 5.0000000000000000 2.5000000000000000 2.5000000000000000 S
atom 0.0000000000000000 7.5000000000000000 2.5000000000000000 S
atom 5.0000000000000000 7.5000000000000000 2.5000000000000000 S
atom 0.0000000000000000 2.5000000000000000 7.5000000000000000 S
atom 5.0000000000000000 2.5000000000000000 7.5000000000000000 S
atom 0.0000000000000000 7.5000000000000000 7.5000000000000000 S
atom 5.0000000000000000 7.5000000000000000 7.5000000000000000 S
atom 0.0000000000000000 0.0000000000000000 10.0000000000000000 Ba
atom 5.0000000000000000 0.0000000000000000 10.0000000000000000 Ba
atom 0.0000000000000000 5.0000000000000000 10.0000000000000000 Ba
atom 5.0000000000000000 5.0000000000000000 10.0000000000000000 Ba
atom 0.0000000000000000 0.0000000000000000 15.0000000000000000 Ba
atom 5.0000000000000000 0.0000000000000000 15.0000000000000000 Ba
atom 0.0000000000000000 5.0000000000000000 15.0000000000000000 Ba
atom 5.0000000000000000 5.0000000000000000 15.0000000000000000 Ba
atom 2.5000000000000000 2.5000000000000000 12.5000000000000000 Zr
atom 7.5000000000000000 2.5000000000000000 12.5000000000000000 Zr
atom 2.5000000000000000 7.5000000000000000 12.5000000000000000 Zr
atom 7.5000000000000000 7.5000000000000000 12.5000000000000000 Zr
atom 2.5000000000000000 2.5000000000000000 17.5000000000000000 Zr
atom 7.5000000000000000 2.5000000000000000 17.5000000000000000 Zr
atom 2.5000000000000000 7.5000000000000000 17.5000000000000000 Zr
atom 7.5000000000000000 7.5000000000000000 17.5000000000000000 Zr
atom 2.5000000000000000 2.5000000000000000 10.0000000000000000 S
atom 7.5000000000000000 2.5000000000000000 10.0000000000000000 S
atom 2.5000000000000000 7.5000000000000000 10.0000000000000000 S
atom 7.5000000000000000 7.5000000000000000 10.0000000000000000 S
atom 2.5000000000000000 2.5000000000000000 15.0000000000000000 S
atom 7.5000000000000000 2.5000000000000000 15.0000000000000000 S
atom 2.5000000000000000 7.5000000000000000 15.0000000000000000 S
atom 7.5000000000000000 7.5000000000000000 15.0000000000000000 S
atom 2.5000000000000000 0.0000000000000000 12.5000000000000000 S
atom 7.5000000000000000 0.0000000000000000 12.5000000000000000 S
atom 2.5000000000000000 5.0000000000000000 12.5000000000000000 S
atom 7.5000000000000000 5.0000000000000000 12.5000000000000000 S
atom 2.5000000000000000 0.0000000000000000 17.5000000000000000 S
atom 7.5000000000000000 0.0000000000000000 17.5000000000000000 S
atom 2.5000000000000000 5.0000000000000000 17.5000000000000000 S
atom 7.5000000000000000 5.0000000000000000 17.5000000000000000 S
atom 0.0000000000000000 2.5000000000000000 12.5000000000000000 S
atom 5.0000000000000000 2.5000000000000000 12.5000000000000000 S
atom 0.0000000000000000 7.5000000000000000 12.5000000000000000 S
atom 5.0000000000000000 7.5000000000000000 12.5000000000000000 S
atom 0.0000000000000000 2.5000000000000000 17.5000000000000000 S
atom 5.0000000000000000 2.5000000000000000 17.5000000000000000 S
atom 0.0000000000000000 7.5000000000000000 17.5000000000000000 S
atom 5.0000000000000000 7.5000000000000000 17.5000000000000000 S
atom 0.0000000000000000 0.0000000000000000 20.0000000000000000 Ba
atom 5.0000000000000000 0.0000000000000000 20.0000000000000000 Ba
atom 0.0000000000000000 5.0000000000000000 20.0000000000000000 Ba
atom 5.0000000000000000 5.0000000000000000 20.0000000000000000 Ba
atom 0.0000000000000000 0.0000000000000000 25.0000000000000000 Ba
atom 5.0000000000000000 0.0000000000000000 25.0000000000000000 Ba
atom 0.0000000000000000 5.0000000000000000 25.0000000000000000 Ba
atom 5.0000000000000000 5.0000000000000000 25.0000000000000000 Ba
atom 2.5000000000000000 2.5000000000000000 22.5000000000000000 Zr
atom 7.5000000000000000 2.5000000000000000 22.5000000000000000 Zr
atom 2.5000000000000000 7.5000000000000000 22.5000000000000000 Zr
atom 7.5000000000000000 7.5000000000000000 22.5000000000000000 Zr
atom 2.5000000000000000 2.5000000000000000 20.0000000000000000 S
atom 7.5000000000000000 2.5000000000000000 20.0000000000000000 S
atom 2.5000000000000000 7.5000000000000000 20.0000000000000000 S
atom 7.5000000000000000 7.5000000000000000 20.0000000000000000 S
atom 2.5000000000000000 2.5000000000000000 25.0000000000000000 S
atom 7.5000000000000000 2.5000000000000000 25.0000000000000000 S
atom 2.5000000000000000 7.5000000000000000 25.0000000000000000 S
atom 7.5000000000000000 7.5000000000000000 25.0000000000000000 S
atom 2.5000000000000000 0.0000000000000000 22.5000000000000000 S
atom 7.5000000000000000 0.0000000000000000 22.5000000000000000 S
atom 2.5000000000000000 5.0000000000000000 22.5000000000000000 S
atom 7.5000000000000000 5.0000000000000000 22.5000000000000000 S
atom 0.0000000000000000 2.5000000000000000 22.5000000000000000 S
atom 5.0000000000000000 2.5000000000000000 22.5000000000000000 S
atom 0.0000000000000000 7.5000000000000000 22.5000000000000000 S
atom 5.0000000000000000 7.5000000000000000 22.5000000000000000 S
atom 2.5000000000000000 2.5000000000000000 28.0000000000000000 Ba
atom 7.5000000000000000 2.5000000000000000 28.0000000000000000 Ba
atom 2.5000000000000000 7.5000000000000000 28.0000000000000000 Ba
atom 7.5000000000000000 7.5000000000000000 28.0000000000000000 Ba
atom 2.5000000000000000 2.5000000000000000 33.0000000000000000 Ba
atom 7.5000000000000000 2.5000000000000000 33.0000000000000000 Ba
atom 2.5000000000000000 7.5000000000000000 33.0000000000000000 Ba
atom 7.5000000000000000 7.5000000000000000 33.0000000000000000 Ba
atom 5.0000000000000000 5.0000000000000000 30.5000000000000000 Zr
atom 10.0000000000000000 5.0000000000000000 30.5000000000000000 Zr
atom 5.0000000000000000 10.0000000000000000 30.5000000000000000 Zr
atom 10.0000000000000000 10.0000000000000000 30.5000000000000000 Zr
atom 5.0000000000000000 5.0000000000000000 35.5000000000000000 Zr
atom 10.0000000000000000 5.0000000000000000 35.5000000000000000 Zr
atom 5.0000000000000000 10.0000000000000000 35.5000000000000000 Zr
atom 10.0000000000000000 10.0000000000000000 35.5000000000000000 Zr
atom 5.0000000000000000 5.0000000000000000 28.0000000000000000 S
atom 10.0000000000000000 5.0000000000000000 28.0000000000000000 S
atom 5.0000000000000000 10.0000000000000000 28.0000000000000000 S
atom 10.0000000000000000 10.0000000000000000 28.0000000000000000 S
atom 5.0000000000000000 5.0000000000000000 33.0000000000000000 S
atom 10.0000000000000000 5.0000000000000000 33.0000000000000000 S
atom 5.0000000000000000 10.0000000000000000 33.0000000000000000 S
atom 10.0000000000000000 10.0000000000000000 33.0000000000000000 S
atom 5.0000000000000000 2.5000000000000000 30.5000000000000000 S
atom 10.0000000000000000 2.5000000000000000 30.5000000000000000 S
atom 5.0000000000000000 7.5000000000000000 30.5000000000000000 S
atom 10.0000000000000000 7.5000000000000000 30.5000000000000000 S
atom 5.0000000000000000 2.5000000000000000 35.5000000000000000 S
atom 10.0000000000000000 2.5000000000000000 35.5000000000000000 S
atom 5.0000000000000000 7.5000000000000000 35.5000000000000000 S
atom 10.0000000000000000 7.5000000000000000 35.5000000000000000 S
atom 2.5000000000000000 5.0000000000000000 30.5000000000000000 S
atom 7.5000000000000000 5.0000000000000000 30.5000000000000000 S
atom 2.5000000000000000 10.0000000000000000 30.5000000000000000 S
atom 7.5000000000000000 10.0000000000000000 30.5000000000000000 S
atom 2.5000000000000000 5.0000000000000000 35.5000000000000000 S
atom 7.5000000000000000 5.0000000000000000 35.5000000000000000 S
atom 2.5000000000000000 10.0000000000000000 35.5000000000000000 S
atom 7.5000000000000000 10.0000000000000000 35.5000000000000000 S
atom 2.5000000000000000 2.5000000000000000 38.0000000000000000 Ba
atom 7.5000000000000000 2.5000000000000000 38.0000000000000000 Ba
atom 2.5000000000000000 7.5000000000000000 38.0000000000000000 Ba
atom 7.5000000000000000 7.5000000000000000 38.0000000000000000 Ba
atom 2.5000000000000000 2.5000000000000000 43.0000000000000000 Ba
atom 7.5000000000000000 2.5000000000000000 43.0000000000000000 Ba
atom 2.5000000000000000 7.5000000000000000 43.0000000000000000 Ba
atom 7.5000000000000000 7.5000000000000000 43.0000000000000000 Ba
atom 5.0000000000000000 5.0000000000000000 40.5000000000000000 Zr
atom 10.0000000000000000 5.0000000000000000 40.5000000000000000 Zr
atom 5.0000000000000000 10.0000000000000000 40.5000000000000000 Zr
atom 10.0000000000000000 10.0000000000000000 40.5000000000000000 Zr
atom 5.0000000000000000 5.0000000000000000 45.5000000000000000 Zr
atom 10.0000000000000000 5.0000000000000000 45.5000000000000000 Zr
atom 5.0000000000000000 10.0000000000000000 45.5000000000000000 Zr
atom 10.0000000000000000 10.0000000000000000 45.5000000000000000 Zr
atom 5.0000000000000000 5.0000000000000000 38.0000000000000000 S
atom 10.0000000000000000 5.0000000000000000 38.0000000000000000 S
atom 5.0000000000000000 10.0000000000000000 38.0000000000000000 S
atom 10.0000000000000000 10.0000000000000000 38.0000000000000000 S
atom 5.0000000000000000 5.0000000000000000 43.0000000000000000 S
atom 10.0000000000000000 5.0000000000000000 43.0000000000000000 S
atom 5.0000000000000000 10.0000000000000000 43.0000000000000000 S
atom 10.0000000000000000 10.0000000000000000 43.0000000000000000 S
atom 5.0000000000000000 2.5000000000000000 40.5000000000000000 S
atom 10.0000000000000000 2.5000000000000000 40.5000000000000000 S
atom 5.0000000000000000 7.5000000000000000 40.5000000000000000 S
atom 10.0000000000000000 7.5000000000000000 40.5000000000000000 S
atom 5.0000000000000000 2.5000000000000000 45.5000000000000000 S
atom 10.0000000000000000 2.5000000000000000 45.5000000000000000 S
atom 5.0000000000000000 7.5000000000000000 45.5000000000000000 S
atom 10.0000000000000000 7.5000000000000000 45.5000000000000000 S
atom 2.5000000000000000 5.0000000000000000 40.5000000000000000 S
atom 7.5000000000000000 5.0000000000000000 40.5000000000000000 S
atom 2.5000000000000000 10.0000000000000000 40.5000000000000000 S
atom 7.5000000000000000 10.0000000000000000 40.5000000000000000 S
atom 2.5000000000000000 5.0000000000000000 45.5000000000000000 S
atom 7.5000000000000000 5.0000000000000000 45.5000000000000000 S
atom 2.5000000000000000 10.0000000000000000 45.5000000000000000 S
atom 7.5000000000000000 10.0000000000000000 45.5000000000000000 S
atom 2.5000000000000000 2.5000000000000000 48.0000000000000000 Ba
atom 7.5000000000000000 2.5000000000000000 48.0000000000000000 Ba
atom 2.5000000000000000 7.5000000000000000 48.0000000000000000 Ba
atom 7.5000000000000000 7.5000000000000000 48.0000000000000000 Ba
atom 2.5000000000000000 2.5000000000000000 53.0000000000000000 Ba
atom 7.5000000000000000 2.5000000000000000 53.0000000000000000 Ba
atom 2.5000000000000000 7.5000000000000000 53.0000000000000000 Ba
atom 7.5000000000000000 7.5000000000000000 53.0000000000000000 Ba
atom 5.0000000000000000 5.0000000000000000 50.5000000000000000 Zr
atom 10.0000000000000000 5.0000000000000000 50.5000000000000000 Zr
atom 5.0000000000000000 10.0000000000000000 50.5000000000000000 Zr
atom 10.0000000000000000 10.0000000000000000 50.5000000000000000 Zr
atom 5.0000000000000000 5.0000000000000000 48.0000000000000000 S
atom 10.0000000000000000 5.0000000000000000 48.0000000000000000 S
atom 5.0000000000000000 10.0000000000000000 48.0000000000000000 S
atom 10.0000000000000000 10.0000000000000000 48.0000000000000000 S
atom 5.0000000000000000 5.0000000000000000 53.0000000000000000 S
atom 10.0000000000000000 5.0000000000000000 53.0000000000000000 S
atom 5.0000000000000000 10.0000000000000000 53.0000000000000000 S
atom 10.0000000000000000 10.0000000000000000 53.0000000000000000 S
atom 5.0000000000000000 2.5000000000000000 50.5000000000000000 S
atom 10.0000000000000000 2.5000000000000000 50.5000000000000000 S
atom 5.0000000000000000 7.5000000000000000 50.5000000000000000 S
atom 10.0000000000000000 7.5000000000000000 50.5000000000000000 S
atom 2.5000000000000000 5.0000000000000000 50.5000000000000000 S
atom 7.5000000000000000 5.0000000000000000 50.5000000000000000 S
atom 2.5000000000000000 10.0000000000000000 50.5000000000000000 S
atom 7.5000000000000000 10.0000000000000000 50.5000000000000000 S
