#=======================================================
# FHI-aims file: RP_6_136.in
# Created using the Atomic Simulation Environment (ASE)
# Mon Nov  4 16:03:14 2024
#=======================================================
lattice_vector 10.0000000000000000 0.0000000000000000 0.0000000000000000 
lattice_vector 0.0000000000000000 10.0000000000000000 0.0000000000000000 
lattice_vector 0.0000000000000000 0.0000000000000000 66.0000000000000000 
atom 0.0000000000000000 0.0000000000000000 0.0000000000000000 Ba
atom 5.0000000000000000 0.0000000000000000 0.0000000000000000 Ba
atom 0.0000000000000000 5.0000000000000000 0.0000000000000000 Ba
atom 5.0000000000000000 5.0000000000000000 0.0000000000000000 Ba
atom 0.0000000000000000 0.0000000000000000 5.0000000000000000 Ba
atom 5.0000000000000000 0.0000000000000000 5.0000000000000000 Ba
atom 0.0000000000000000 5.0000000000000000 5.0000000000000000 Ba
atom 5.0000000000000000 5.0000000000000000 5.0000000000000000 Ba
atom 2.5000000000000000 2.5000000000000000 2.5000000000000000 Zr
atom 7.5000000000000000 2.5000000000000000 2.5000000000000000 Zr
atom 2.5000000000000000 7.5000000000000000 2.5000000000000000 Zr
atom 7.5000000000000000 7.5000000000000000 2.5000000000000000 Zr
atom 2.5000000000000000 2.5000000000000000 7.5000000000000000 Zr
atom 7.5000000000000000 2.5000000000000000 7.5000000000000000 Zr
atom 2.5000000000000000 7.5000000000000000 7.5000000000000000 Zr
atom 7.5000000000000000 7.5000000000000000 7.5000000000000000 Zr
atom 2.5000000000000000 3.5000000000000000 0.0000000000000000 S
atom 7.5000000000000000 1.5000000000000000 0.0000000000000000 S
atom 2.5000000000000000 6.5000000000000000 0.0000000000000000 S
atom 7.5000000000000000 8.5000000000000000 0.0000000000000000 S
atom 2.5000000000000000 1.5000000000000000 5.0000000000000000 S
atom 7.5000000000000000 3.5000000000000000 5.0000000000000000 S
atom 2.5000000000000000 8.5000000000000000 5.0000000000000000 S
atom 7.5000000000000000 6.5000000000000000 5.0000000000000000 S
atom 2.5000000000000000 0.0000000000000000 1.5000000000000000 S
atom 7.5000000000000000 0.0000000000000000 3.5000000000000000 S
atom 2.5000000000000000 5.0000000000000000 3.5000000000000000 S
atom 7.5000000000000000 5.0000000000000000 1.5000000000000000 S
atom 2.5000000000000000 0.0000000000000000 8.5000000000000000 S
atom 7.5000000000000000 0.0000000000000000 6.5000000000000000 S
atom 2.5000000000000000 5.0000000000000000 6.5000000000000000 S
atom 7.5000000000000000 5.0000000000000000 8.5000000000000000 S
atom 0.0000000000000000 2.5000000000000000 2.5000000000000000 S
atom 5.0000000000000000 2.5000000000000000 2.5000000000000000 S
atom 0.0000000000000000 7.5000000000000000 2.5000000000000000 S
atom 5.0000000000000000 7.5000000000000000 2.5000000000000000 S
atom 0.0000000000000000 2.5000000000000000 7.5000000000000000 S
atom 5.0000000000000000 2.5000000000000000 7.5000000000000000 S
atom 0.0000000000000000 7.5000000000000000 7.5000000000000000 S
atom 5.0000000000000000 7.5000000000000000 7.5000000000000000 S
atom 0.0000000000000000 0.0000000000000000 10.0000000000000000 Ba
atom 5.0000000000000000 0.0000000000000000 10.0000000000000000 Ba
atom 0.0000000000000000 5.0000000000000000 10.0000000000000000 Ba
atom 5.0000000000000000 5.0000000000000000 10.0000000000000000 Ba
atom 0.0000000000000000 0.0000000000000000 15.0000000000000000 Ba
atom 5.0000000000000000 0.0000000000000000 15.0000000000000000 Ba
atom 0.0000000000000000 5.0000000000000000 15.0000000000000000 Ba
atom 5.0000000000000000 5.0000000000000000 15.0000000000000000 Ba
atom 2.5000000000000000 2.5000000000000000 12.5000000000000000 Zr
atom 7.5000000000000000 2.5000000000000000 12.5000000000000000 Zr
atom 2.5000000000000000 7.5000000000000000 12.5000000000000000 Zr
atom 7.5000000000000000 7.5000000000000000 12.5000000000000000 Zr
atom 2.5000000000000000 2.5000000000000000 17.5000000000000000 Zr
atom 7.5000000000000000 2.5000000000000000 17.5000000000000000 Zr
atom 2.5000000000000000 7.5000000000000000 17.5000000000000000 Zr
atom 7.5000000000000000 7.5000000000000000 17.5000000000000000 Zr
atom 2.5000000000000000 3.5000000000000000 10.0000000000000000 S
atom 7.5000000000000000 1.5000000000000000 10.0000000000000000 S
atom 2.5000000000000000 6.5000000000000000 10.0000000000000000 S
atom 7.5000000000000000 8.5000000000000000 10.0000000000000000 S
atom 2.5000000000000000 1.5000000000000000 15.0000000000000000 S
atom 7.5000000000000000 3.5000000000000000 15.0000000000000000 S
atom 2.5000000000000000 8.5000000000000000 15.0000000000000000 S
atom 7.5000000000000000 6.5000000000000000 15.0000000000000000 S
atom 2.5000000000000000 0.0000000000000000 11.5000000000000000 S
atom 7.5000000000000000 0.0000000000000000 13.5000000000000000 S
atom 2.5000000000000000 5.0000000000000000 13.5000000000000000 S
atom 7.5000000000000000 5.0000000000000000 11.5000000000000000 S
atom 2.5000000000000000 0.0000000000000000 18.5000000000000000 S
atom 7.5000000000000000 0.0000000000000000 16.5000000000000000 S
atom 2.5000000000000000 5.0000000000000000 16.5000000000000000 S
atom 7.5000000000000000 5.0000000000000000 18.5000000000000000 S
atom 0.0000000000000000 2.5000000000000000 12.5000000000000000 S
atom 5.0000000000000000 2.5000000000000000 12.5000000000000000 S
atom 0.0000000000000000 7.5000000000000000 12.5000000000000000 S
atom 5.0000000000000000 7.5000000000000000 12.5000000000000000 S
atom 0.0000000000000000 2.5000000000000000 17.5000000000000000 S
atom 5.0000000000000000 2.5000000000000000 17.5000000000000000 S
atom 0.0000000000000000 7.5000000000000000 17.5000000000000000 S
atom 5.0000000000000000 7.5000000000000000 17.5000000000000000 S
atom 0.0000000000000000 0.0000000000000000 20.0000000000000000 Ba
atom 5.0000000000000000 0.0000000000000000 20.0000000000000000 Ba
atom 0.0000000000000000 5.0000000000000000 20.0000000000000000 Ba
atom 5.0000000000000000 5.0000000000000000 20.0000000000000000 Ba
atom 0.0000000000000000 0.0000000000000000 25.0000000000000000 Ba
atom 5.0000000000000000 0.0000000000000000 25.0000000000000000 Ba
atom 0.0000000000000000 5.0000000000000000 25.0000000000000000 Ba
atom 5.0000000000000000 5.0000000000000000 25.0000000000000000 Ba
atom 2.5000000000000000 2.5000000000000000 22.5000000000000000 Zr
atom 7.5000000000000000 2.5000000000000000 22.5000000000000000 Zr
atom 2.5000000000000000 7.5000000000000000 22.5000000000000000 Zr
atom 7.5000000000000000 7.5000000000000000 22.5000000000000000 Zr
atom 2.5000000000000000 2.5000000000000000 27.5000000000000000 Zr
atom 7.5000000000000000 2.5000000000000000 27.5000000000000000 Zr
atom 2.5000000000000000 7.5000000000000000 27.5000000000000000 Zr
atom 7.5000000000000000 7.5000000000000000 27.5000000000000000 Zr
atom 2.5000000000000000 3.5000000000000000 20.0000000000000000 S
atom 7.5000000000000000 1.5000000000000000 20.0000000000000000 S
atom 2.5000000000000000 6.5000000000000000 20.0000000000000000 S
atom 7.5000000000000000 8.5000000000000000 20.0000000000000000 S
atom 2.5000000000000000 1.5000000000000000 25.0000000000000000 S
atom 7.5000000000000000 3.5000000000000000 25.0000000000000000 S
atom 2.5000000000000000 8.5000000000000000 25.0000000000000000 S
atom 7.5000000000000000 6.5000000000000000 25.0000000000000000 S
atom 2.5000000000000000 0.0000000000000000 21.5000000000000000 S
atom 7.5000000000000000 0.0000000000000000 23.5000000000000000 S
atom 2.5000000000000000 5.0000000000000000 23.5000000000000000 S
atom 7.5000000000000000 5.0000000000000000 21.5000000000000000 S
atom 2.5000000000000000 0.0000000000000000 28.5000000000000000 S
atom 7.5000000000000000 0.0000000000000000 26.5000000000000000 S
atom 2.5000000000000000 5.0000000000000000 26.5000000000000000 S
atom 7.5000000000000000 5.0000000000000000 28.5000000000000000 S
atom 0.0000000000000000 2.5000000000000000 22.5000000000000000 S
atom 5.0000000000000000 2.5000000000000000 22.5000000000000000 S
atom 0.0000000000000000 7.5000000000000000 22.5000000000000000 S
atom 5.0000000000000000 7.5000000000000000 22.5000000000000000 S
atom 0.0000000000000000 2.5000000000000000 27.5000000000000000 S
atom 5.0000000000000000 2.5000000000000000 27.5000000000000000 S
atom 0.0000000000000000 7.5000000000000000 27.5000000000000000 S
atom 5.0000000000000000 7.5000000000000000 27.5000000000000000 S
atom 0.0000000000000000 0.0000000000000000 30.0000000000000000 Ba
atom 5.0000000000000000 0.0000000000000000 30.0000000000000000 Ba
atom 0.0000000000000000 5.0000000000000000 30.0000000000000000 Ba
atom 5.0000000000000000 5.0000000000000000 30.0000000000000000 Ba
atom 2.5000000000000000 3.5000000000000000 30.0000000000000000 S
atom 7.5000000000000000 1.5000000000000000 30.0000000000000000 S
atom 2.5000000000000000 6.5000000000000000 30.0000000000000000 S
atom 7.5000000000000000 8.5000000000000000 30.0000000000000000 S
atom 2.5000000000000000 2.5000000000000000 33.0000000000000000 Ba
atom 7.5000000000000000 2.5000000000000000 33.0000000000000000 Ba
atom 2.5000000000000000 7.5000000000000000 33.0000000000000000 Ba
atom 7.5000000000000000 7.5000000000000000 33.0000000000000000 Ba
atom 2.5000000000000000 2.5000000000000000 38.0000000000000000 Ba
atom 7.5000000000000000 2.5000000000000000 38.0000000000000000 Ba
atom 2.5000000000000000 7.5000000000000000 38.0000000000000000 Ba
atom 7.5000000000000000 7.5000000000000000 38.0000000000000000 Ba
atom 5.0000000000000000 5.0000000000000000 35.5000000000000000 Zr
atom 10.0000000000000000 5.0000000000000000 35.5000000000000000 Zr
atom 5.0000000000000000 10.0000000000000000 35.5000000000000000 Zr
atom 10.0000000000000000 10.0000000000000000 35.5000000000000000 Zr
atom 5.0000000000000000 5.0000000000000000 40.5000000000000000 Zr
atom 10.0000000000000000 5.0000000000000000 40.5000000000000000 Zr
atom 5.0000000000000000 10.0000000000000000 40.5000000000000000 Zr
atom 10.0000000000000000 10.0000000000000000 40.5000000000000000 Zr
atom 6.0000000000000000 5.0000000000000000 33.0000000000000000 S
atom 9.0000000000000000 5.0000000000000000 33.0000000000000000 S
atom 4.0000000000000000 10.0000000000000000 33.0000000000000000 S
atom 11.0000000000000000 10.0000000000000000 33.0000000000000000 S
atom 4.0000000000000000 5.0000000000000000 38.0000000000000000 S
atom 11.0000000000000000 5.0000000000000000 38.0000000000000000 S
atom 6.0000000000000000 10.0000000000000000 38.0000000000000000 S
atom 9.0000000000000000 10.0000000000000000 38.0000000000000000 S
atom 5.0000000000000000 2.5000000000000000 35.5000000000000000 S
atom 10.0000000000000000 2.5000000000000000 35.5000000000000000 S
atom 5.0000000000000000 7.5000000000000000 35.5000000000000000 S
atom 10.0000000000000000 7.5000000000000000 35.5000000000000000 S
atom 5.0000000000000000 2.5000000000000000 40.5000000000000000 S
atom 10.0000000000000000 2.5000000000000000 40.5000000000000000 S
atom 5.0000000000000000 7.5000000000000000 40.5000000000000000 S
atom 10.0000000000000000 7.5000000000000000 40.5000000000000000 S
atom 2.5000000000000000 5.0000000000000000 34.5000000000000000 S
atom 7.5000000000000000 5.0000000000000000 36.5000000000000000 S
atom 2.5000000000000000 10.0000000000000000 36.5000000000000000 S
atom 7.5000000000000000 10.0000000000000000 34.5000000000000000 S
atom 2.5000000000000000 5.0000000000000000 41.5000000000000000 S
atom 7.5000000000000000 5.0000000000000000 39.5000000000000000 S
atom 2.5000000000000000 10.0000000000000000 39.5000000000000000 S
atom 7.5000000000000000 10.0000000000000000 41.5000000000000000 S
atom 2.5000000000000000 2.5000000000000000 43.0000000000000000 Ba
atom 7.5000000000000000 2.5000000000000000 43.0000000000000000 Ba
atom 2.5000000000000000 7.5000000000000000 43.0000000000000000 Ba
atom 7.5000000000000000 7.5000000000000000 43.0000000000000000 Ba
atom 2.5000000000000000 2.5000000000000000 48.0000000000000000 Ba
atom 7.5000000000000000 2.5000000000000000 48.0000000000000000 Ba
atom 2.5000000000000000 7.5000000000000000 48.0000000000000000 Ba
atom 7.5000000000000000 7.5000000000000000 48.0000000000000000 Ba
atom 5.0000000000000000 5.0000000000000000 45.5000000000000000 Zr
atom 10.0000000000000000 5.0000000000000000 45.5000000000000000 Zr
atom 5.0000000000000000 10.0000000000000000 45.5000000000000000 Zr
atom 10.0000000000000000 10.0000000000000000 45.5000000000000000 Zr
atom 5.0000000000000000 5.0000000000000000 50.5000000000000000 Zr
atom 10.0000000000000000 5.0000000000000000 50.5000000000000000 Zr
atom 5.0000000000000000 10.0000000000000000 50.5000000000000000 Zr
atom 10.0000000000000000 10.0000000000000000 50.5000000000000000 Zr
atom 6.0000000000000000 5.0000000000000000 43.0000000000000000 S
atom 9.0000000000000000 5.0000000000000000 43.0000000000000000 S
atom 4.0000000000000000 10.0000000000000000 43.0000000000000000 S
atom 11.0000000000000000 10.0000000000000000 43.0000000000000000 S
atom 4.0000000000000000 5.0000000000000000 48.0000000000000000 S
atom 11.0000000000000000 5.0000000000000000 48.0000000000000000 S
atom 6.0000000000000000 10.0000000000000000 48.0000000000000000 S
atom 9.0000000000000000 10.0000000000000000 48.0000000000000000 S
atom 5.0000000000000000 2.5000000000000000 45.5000000000000000 S
atom 10.0000000000000000 2.5000000000000000 45.5000000000000000 S
atom 5.0000000000000000 7.5000000000000000 45.5000000000000000 S
atom 10.0000000000000000 7.5000000000000000 45.5000000000000000 S
atom 5.0000000000000000 2.5000000000000000 50.5000000000000000 S
atom 10.0000000000000000 2.5000000000000000 50.5000000000000000 S
atom 5.0000000000000000 7.5000000000000000 50.5000000000000000 S
atom 10.0000000000000000 7.5000000000000000 50.5000000000000000 S
atom 2.5000000000000000 5.0000000000000000 44.5000000000000000 S
atom 7.5000000000000000 5.0000000000000000 46.5000000000000000 S
atom 2.5000000000000000 10.0000000000000000 46.5000000000000000 S
atom 7.5000000000000000 10.0000000000000000 44.5000000000000000 S
atom 2.5000000000000000 5.0000000000000000 51.5000000000000000 S
atom 7.5000000000000000 5.0000000000000000 49.5000000000000000 S
atom 2.5000000000000000 10.0000000000000000 49.5000000000000000 S
atom 7.5000000000000000 10.0000000000000000 51.5000000000000000 S
atom 2.5000000000000000 2.5000000000000000 53.0000000000000000 Ba
atom 7.5000000000000000 2.5000000000000000 53.0000000000000000 Ba
atom 2.5000000000000000 7.5000000000000000 53.0000000000000000 Ba
atom 7.5000000000000000 7.5000000000000000 53.0000000000000000 Ba
atom 2.5000000000000000 2.5000000000000000 58.0000000000000000 Ba
atom 7.5000000000000000 2.5000000000000000 58.0000000000000000 Ba
atom 2.5000000000000000 7.5000000000000000 58.0000000000000000 Ba
atom 7.5000000000000000 7.5000000000000000 58.0000000000000000 Ba
atom 5.0000000000000000 5.0000000000000000 55.5000000000000000 Zr
atom 10.0000000000000000 5.0000000000000000 55.5000000000000000 Zr
atom 5.0000000000000000 10.0000000000000000 55.5000000000000000 Zr
atom 10.0000000000000000 10.0000000000000000 55.5000000000000000 Zr
atom 5.0000000000000000 5.0000000000000000 60.5000000000000000 Zr
atom 10.0000000000000000 5.0000000000000000 60.5000000000000000 Zr
atom 5.0000000000000000 10.0000000000000000 60.5000000000000000 Zr
atom 10.0000000000000000 10.0000000000000000 60.5000000000000000 Zr
atom 6.0000000000000000 5.0000000000000000 53.0000000000000000 S
atom 9.0000000000000000 5.0000000000000000 53.0000000000000000 S
atom 4.0000000000000000 10.0000000000000000 53.0000000000000000 S
atom 11.0000000000000000 10.0000000000000000 53.0000000000000000 S
atom 4.0000000000000000 5.0000000000000000 58.0000000000000000 S
atom 11.0000000000000000 5.0000000000000000 58.0000000000000000 S
atom 6.0000000000000000 10.0000000000000000 58.0000000000000000 S
atom 9.0000000000000000 10.0000000000000000 58.0000000000000000 S
atom 5.0000000000000000 2.5000000000000000 55.5000000000000000 S
atom 10.0000000000000000 2.5000000000000000 55.5000000000000000 S
atom 5.0000000000000000 7.5000000000000000 55.5000000000000000 S
atom 10.0000000000000000 7.5000000000000000 55.5000000000000000 S
atom 5.0000000000000000 2.5000000000000000 60.5000000000000000 S
atom 10.0000000000000000 2.5000000000000000 60.5000000000000000 S
atom 5.0000000000000000 7.5000000000000000 60.5000000000000000 S
atom 10.0000000000000000 7.5000000000000000 60.5000000000000000 S
atom 2.5000000000000000 5.0000000000000000 54.5000000000000000 S
atom 7.5000000000000000 5.0000000000000000 56.5000000000000000 S
atom 2.5000000000000000 10.0000000000000000 56.5000000000000000 S
atom 7.5000000000000000 10.0000000000000000 54.5000000000000000 S
atom 2.5000000000000000 5.0000000000000000 61.5000000000000000 S
atom 7.5000000000000000 5.0000000000000000 59.5000000000000000 S
atom 2.5000000000000000 10.0000000000000000 59.5000000000000000 S
atom 7.5000000000000000 10.0000000000000000 61.5000000000000000 S
atom 2.5000000000000000 2.5000000000000000 63.0000000000000000 Ba
atom 7.5000000000000000 2.5000000000000000 63.0000000000000000 Ba
atom 2.5000000000000000 7.5000000000000000 63.0000000000000000 Ba
atom 7.5000000000000000 7.5000000000000000 63.0000000000000000 Ba
atom 6.0000000000000000 5.0000000000000000 63.0000000000000000 S
atom 9.0000000000000000 5.0000000000000000 63.0000000000000000 S
atom 4.0000000000000000 10.0000000000000000 63.0000000000000000 S
atom 11.0000000000000000 10.0000000000000000 63.0000000000000000 S
