#=======================================================
# FHI-aims file: RP_8_127.in
# Created using the Atomic Simulation Environment (ASE)
# Mon Nov  4 16:03:15 2024
#=======================================================
lattice_vector 10.0000000000000000 0.0000000000000000 0.0000000000000000 
lattice_vector 0.0000000000000000 10.0000000000000000 0.0000000000000000 
lattice_vector 0.0000000000000000 0.0000000000000000 86.0000000000000000 
atom 0.0000000000000000 0.0000000000000000 0.0000000000000000 Ba
atom 5.0000000000000000 0.0000000000000000 0.0000000000000000 Ba
atom 0.0000000000000000 5.0000000000000000 0.0000000000000000 Ba
atom 5.0000000000000000 5.0000000000000000 0.0000000000000000 Ba
atom 0.0000000000000000 0.0000000000000000 5.0000000000000000 Ba
atom 5.0000000000000000 0.0000000000000000 5.0000000000000000 Ba
atom 0.0000000000000000 5.0000000000000000 5.0000000000000000 Ba
atom 5.0000000000000000 5.0000000000000000 5.0000000000000000 Ba
atom 2.5000000000000000 2.5000000000000000 2.5000000000000000 Zr
atom 7.5000000000000000 2.5000000000000000 2.5000000000000000 Zr
atom 2.5000000000000000 7.5000000000000000 2.5000000000000000 Zr
atom 7.5000000000000000 7.5000000000000000 2.5000000000000000 Zr
atom 2.5000000000000000 2.5000000000000000 7.5000000000000000 Zr
atom 7.5000000000000000 2.5000000000000000 7.5000000000000000 Zr
atom 2.5000000000000000 7.5000000000000000 7.5000000000000000 Zr
atom 7.5000000000000000 7.5000000000000000 7.5000000000000000 Zr
atom 2.5000000000000000 2.5000000000000000 0.0000000000000000 S
atom 7.5000000000000000 2.5000000000000000 0.0000000000000000 S
atom 2.5000000000000000 7.5000000000000000 0.0000000000000000 S
atom 7.5000000000000000 7.5000000000000000 0.0000000000000000 S
atom 2.5000000000000000 2.5000000000000000 5.0000000000000000 S
atom 7.5000000000000000 2.5000000000000000 5.0000000000000000 S
atom 2.5000000000000000 7.5000000000000000 5.0000000000000000 S
atom 7.5000000000000000 7.5000000000000000 5.0000000000000000 S
atom 3.5000000000000000 0.0000000000000000 2.5000000000000000 S
atom 6.5000000000000000 0.0000000000000000 2.5000000000000000 S
atom 1.5000000000000000 5.0000000000000000 2.5000000000000000 S
atom 8.5000000000000000 5.0000000000000000 2.5000000000000000 S
atom 3.5000000000000000 0.0000000000000000 7.5000000000000000 S
atom 6.5000000000000000 0.0000000000000000 7.5000000000000000 S
atom 1.5000000000000000 5.0000000000000000 7.5000000000000000 S
atom 8.5000000000000000 5.0000000000000000 7.5000000000000000 S
atom 0.0000000000000000 1.5000000000000000 2.5000000000000000 S
atom 5.0000000000000000 3.5000000000000000 2.5000000000000000 S
atom 0.0000000000000000 8.5000000000000000 2.5000000000000000 S
atom 5.0000000000000000 6.5000000000000000 2.5000000000000000 S
atom 0.0000000000000000 1.5000000000000000 7.5000000000000000 S
atom 5.0000000000000000 3.5000000000000000 7.5000000000000000 S
atom 0.0000000000000000 8.5000000000000000 7.5000000000000000 S
atom 5.0000000000000000 6.5000000000000000 7.5000000000000000 S
atom 0.0000000000000000 0.0000000000000000 10.0000000000000000 Ba
atom 5.0000000000000000 0.0000000000000000 10.0000000000000000 Ba
atom 0.0000000000000000 5.0000000000000000 10.0000000000000000 Ba
atom 5.0000000000000000 5.0000000000000000 10.0000000000000000 Ba
atom 0.0000000000000000 0.0000000000000000 15.0000000000000000 Ba
atom 5.0000000000000000 0.0000000000000000 15.0000000000000000 Ba
atom 0.0000000000000000 5.0000000000000000 15.0000000000000000 Ba
atom 5.0000000000000000 5.0000000000000000 15.0000000000000000 Ba
atom 2.5000000000000000 2.5000000000000000 12.5000000000000000 Zr
atom 7.5000000000000000 2.5000000000000000 12.5000000000000000 Zr
atom 2.5000000000000000 7.5000000000000000 12.5000000000000000 Zr
atom 7.5000000000000000 7.5000000000000000 12.5000000000000000 Zr
atom 2.5000000000000000 2.5000000000000000 17.5000000000000000 Zr
atom 7.5000000000000000 2.5000000000000000 17.5000000000000000 Zr
atom 2.5000000000000000 7.5000000000000000 17.5000000000000000 Zr
atom 7.5000000000000000 7.5000000000000000 17.5000000000000000 Zr
atom 2.5000000000000000 2.5000000000000000 10.0000000000000000 S
atom 7.5000000000000000 2.5000000000000000 10.0000000000000000 S
atom 2.5000000000000000 7.5000000000000000 10.0000000000000000 S
atom 7.5000000000000000 7.5000000000000000 10.0000000000000000 S
atom 2.5000000000000000 2.5000000000000000 15.0000000000000000 S
atom 7.5000000000000000 2.5000000000000000 15.0000000000000000 S
atom 2.5000000000000000 7.5000000000000000 15.0000000000000000 S
atom 7.5000000000000000 7.5000000000000000 15.0000000000000000 S
atom 3.5000000000000000 0.0000000000000000 12.5000000000000000 S
atom 6.5000000000000000 0.0000000000000000 12.5000000000000000 S
atom 1.5000000000000000 5.0000000000000000 12.5000000000000000 S
atom 8.5000000000000000 5.0000000000000000 12.5000000000000000 S
atom 3.5000000000000000 0.0000000000000000 17.5000000000000000 S
atom 6.5000000000000000 0.0000000000000000 17.5000000000000000 S
atom 1.5000000000000000 5.0000000000000000 17.5000000000000000 S
atom 8.5000000000000000 5.0000000000000000 17.5000000000000000 S
atom 0.0000000000000000 1.5000000000000000 12.5000000000000000 S
atom 5.0000000000000000 3.5000000000000000 12.5000000000000000 S
atom 0.0000000000000000 8.5000000000000000 12.5000000000000000 S
atom 5.0000000000000000 6.5000000000000000 12.5000000000000000 S
atom 0.0000000000000000 1.5000000000000000 17.5000000000000000 S
atom 5.0000000000000000 3.5000000000000000 17.5000000000000000 S
atom 0.0000000000000000 8.5000000000000000 17.5000000000000000 S
atom 5.0000000000000000 6.5000000000000000 17.5000000000000000 S
atom 0.0000000000000000 0.0000000000000000 20.0000000000000000 Ba
atom 5.0000000000000000 0.0000000000000000 20.0000000000000000 Ba
atom 0.0000000000000000 5.0000000000000000 20.0000000000000000 Ba
atom 5.0000000000000000 5.0000000000000000 20.0000000000000000 Ba
atom 0.0000000000000000 0.0000000000000000 25.0000000000000000 Ba
atom 5.0000000000000000 0.0000000000000000 25.0000000000000000 Ba
atom 0.0000000000000000 5.0000000000000000 25.0000000000000000 Ba
atom 5.0000000000000000 5.0000000000000000 25.0000000000000000 Ba
atom 2.5000000000000000 2.5000000000000000 22.5000000000000000 Zr
atom 7.5000000000000000 2.5000000000000000 22.5000000000000000 Zr
atom 2.5000000000000000 7.5000000000000000 22.5000000000000000 Zr
atom 7.5000000000000000 7.5000000000000000 22.5000000000000000 Zr
atom 2.5000000000000000 2.5000000000000000 27.5000000000000000 Zr
atom 7.5000000000000000 2.5000000000000000 27.5000000000000000 Zr
atom 2.5000000000000000 7.5000000000000000 27.5000000000000000 Zr
atom 7.5000000000000000 7.5000000000000000 27.5000000000000000 Zr
atom 2.5000000000000000 2.5000000000000000 20.0000000000000000 S
atom 7.5000000000000000 2.5000000000000000 20.0000000000000000 S
atom 2.5000000000000000 7.5000000000000000 20.0000000000000000 S
atom 7.5000000000000000 7.5000000000000000 20.0000000000000000 S
atom 2.5000000000000000 2.5000000000000000 25.0000000000000000 S
atom 7.5000000000000000 2.5000000000000000 25.0000000000000000 S
atom 2.5000000000000000 7.5000000000000000 25.0000000000000000 S
atom 7.5000000000000000 7.5000000000000000 25.0000000000000000 S
atom 3.5000000000000000 0.0000000000000000 22.5000000000000000 S
atom 6.5000000000000000 0.0000000000000000 22.5000000000000000 S
atom 1.5000000000000000 5.0000000000000000 22.5000000000000000 S
atom 8.5000000000000000 5.0000000000000000 22.5000000000000000 S
atom 3.5000000000000000 0.0000000000000000 27.5000000000000000 S
atom 6.5000000000000000 0.0000000000000000 27.5000000000000000 S
atom 1.5000000000000000 5.0000000000000000 27.5000000000000000 S
atom 8.5000000000000000 5.0000000000000000 27.5000000000000000 S
atom 0.0000000000000000 1.5000000000000000 22.5000000000000000 S
atom 5.0000000000000000 3.5000000000000000 22.5000000000000000 S
atom 0.0000000000000000 8.5000000000000000 22.5000000000000000 S
atom 5.0000000000000000 6.5000000000000000 22.5000000000000000 S
atom 0.0000000000000000 1.5000000000000000 27.5000000000000000 S
atom 5.0000000000000000 3.5000000000000000 27.5000000000000000 S
atom 0.0000000000000000 8.5000000000000000 27.5000000000000000 S
atom 5.0000000000000000 6.5000000000000000 27.5000000000000000 S
atom 0.0000000000000000 0.0000000000000000 30.0000000000000000 Ba
atom 5.0000000000000000 0.0000000000000000 30.0000000000000000 Ba
atom 0.0000000000000000 5.0000000000000000 30.0000000000000000 Ba
atom 5.0000000000000000 5.0000000000000000 30.0000000000000000 Ba
atom 0.0000000000000000 0.0000000000000000 35.0000000000000000 Ba
atom 5.0000000000000000 0.0000000000000000 35.0000000000000000 Ba
atom 0.0000000000000000 5.0000000000000000 35.0000000000000000 Ba
atom 5.0000000000000000 5.0000000000000000 35.0000000000000000 Ba
atom 2.5000000000000000 2.5000000000000000 32.5000000000000000 Zr
atom 7.5000000000000000 2.5000000000000000 32.5000000000000000 Zr
atom 2.5000000000000000 7.5000000000000000 32.5000000000000000 Zr
atom 7.5000000000000000 7.5000000000000000 32.5000000000000000 Zr
atom 2.5000000000000000 2.5000000000000000 37.5000000000000000 Zr
atom 7.5000000000000000 2.5000000000000000 37.5000000000000000 Zr
atom 2.5000000000000000 7.5000000000000000 37.5000000000000000 Zr
atom 7.5000000000000000 7.5000000000000000 37.5000000000000000 Zr
atom 2.5000000000000000 2.5000000000000000 30.0000000000000000 S
atom 7.5000000000000000 2.5000000000000000 30.0000000000000000 S
atom 2.5000000000000000 7.5000000000000000 30.0000000000000000 S
atom 7.5000000000000000 7.5000000000000000 30.0000000000000000 S
atom 2.5000000000000000 2.5000000000000000 35.0000000000000000 S
atom 7.5000000000000000 2.5000000000000000 35.0000000000000000 S
atom 2.5000000000000000 7.5000000000000000 35.0000000000000000 S
atom 7.5000000000000000 7.5000000000000000 35.0000000000000000 S
atom 3.5000000000000000 0.0000000000000000 32.5000000000000000 S
atom 6.5000000000000000 0.0000000000000000 32.5000000000000000 S
atom 1.5000000000000000 5.0000000000000000 32.5000000000000000 S
atom 8.5000000000000000 5.0000000000000000 32.5000000000000000 S
atom 3.5000000000000000 0.0000000000000000 37.5000000000000000 S
atom 6.5000000000000000 0.0000000000000000 37.5000000000000000 S
atom 1.5000000000000000 5.0000000000000000 37.5000000000000000 S
atom 8.5000000000000000 5.0000000000000000 37.5000000000000000 S
atom 0.0000000000000000 1.5000000000000000 32.5000000000000000 S
atom 5.0000000000000000 3.5000000000000000 32.5000000000000000 S
atom 0.0000000000000000 8.5000000000000000 32.5000000000000000 S
atom 5.0000000000000000 6.5000000000000000 32.5000000000000000 S
atom 0.0000000000000000 1.5000000000000000 37.5000000000000000 S
atom 5.0000000000000000 3.5000000000000000 37.5000000000000000 S
atom 0.0000000000000000 8.5000000000000000 37.5000000000000000 S
atom 5.0000000000000000 6.5000000000000000 37.5000000000000000 S
atom 0.0000000000000000 0.0000000000000000 40.0000000000000000 Ba
atom 5.0000000000000000 0.0000000000000000 40.0000000000000000 Ba
atom 0.0000000000000000 5.0000000000000000 40.0000000000000000 Ba
atom 5.0000000000000000 5.0000000000000000 40.0000000000000000 Ba
atom 2.5000000000000000 2.5000000000000000 40.0000000000000000 S
atom 7.5000000000000000 2.5000000000000000 40.0000000000000000 S
atom 2.5000000000000000 7.5000000000000000 40.0000000000000000 S
atom 7.5000000000000000 7.5000000000000000 40.0000000000000000 S
atom 2.5000000000000000 2.5000000000000000 43.0000000000000000 Ba
atom 7.5000000000000000 2.5000000000000000 43.0000000000000000 Ba
atom 2.5000000000000000 7.5000000000000000 43.0000000000000000 Ba
atom 7.5000000000000000 7.5000000000000000 43.0000000000000000 Ba
atom 2.5000000000000000 2.5000000000000000 48.0000000000000000 Ba
atom 7.5000000000000000 2.5000000000000000 48.0000000000000000 Ba
atom 2.5000000000000000 7.5000000000000000 48.0000000000000000 Ba
atom 7.5000000000000000 7.5000000000000000 48.0000000000000000 Ba
atom 5.0000000000000000 5.0000000000000000 45.5000000000000000 Zr
atom 10.0000000000000000 5.0000000000000000 45.5000000000000000 Zr
atom 5.0000000000000000 10.0000000000000000 45.5000000000000000 Zr
atom 10.0000000000000000 10.0000000000000000 45.5000000000000000 Zr
atom 5.0000000000000000 5.0000000000000000 50.5000000000000000 Zr
atom 10.0000000000000000 5.0000000000000000 50.5000000000000000 Zr
atom 5.0000000000000000 10.0000000000000000 50.5000000000000000 Zr
atom 10.0000000000000000 10.0000000000000000 50.5000000000000000 Zr
atom 5.0000000000000000 5.0000000000000000 43.0000000000000000 S
atom 10.0000000000000000 5.0000000000000000 43.0000000000000000 S
atom 5.0000000000000000 10.0000000000000000 43.0000000000000000 S
atom 10.0000000000000000 10.0000000000000000 43.0000000000000000 S
atom 5.0000000000000000 5.0000000000000000 48.0000000000000000 S
atom 10.0000000000000000 5.0000000000000000 48.0000000000000000 S
atom 5.0000000000000000 10.0000000000000000 48.0000000000000000 S
atom 10.0000000000000000 10.0000000000000000 48.0000000000000000 S
atom 5.0000000000000000 2.5000000000000000 45.5000000000000000 S
atom 10.0000000000000000 2.5000000000000000 45.5000000000000000 S
atom 5.0000000000000000 7.5000000000000000 45.5000000000000000 S
atom 10.0000000000000000 7.5000000000000000 45.5000000000000000 S
atom 5.0000000000000000 2.5000000000000000 50.5000000000000000 S
atom 10.0000000000000000 2.5000000000000000 50.5000000000000000 S
atom 5.0000000000000000 7.5000000000000000 50.5000000000000000 S
atom 10.0000000000000000 7.5000000000000000 50.5000000000000000 S
atom 2.5000000000000000 5.0000000000000000 45.5000000000000000 S
atom 7.5000000000000000 5.0000000000000000 45.5000000000000000 S
atom 2.5000000000000000 10.0000000000000000 45.5000000000000000 S
atom 7.5000000000000000 10.0000000000000000 45.5000000000000000 S
atom 2.5000000000000000 5.0000000000000000 50.5000000000000000 S
atom 7.5000000000000000 5.0000000000000000 50.5000000000000000 S
atom 2.5000000000000000 10.0000000000000000 50.5000000000000000 S
atom 7.5000000000000000 10.0000000000000000 50.5000000000000000 S
atom 2.5000000000000000 2.5000000000000000 53.0000000000000000 Ba
atom 7.5000000000000000 2.5000000000000000 53.0000000000000000 Ba
atom 2.5000000000000000 7.5000000000000000 53.0000000000000000 Ba
atom 7.5000000000000000 7.5000000000000000 53.0000000000000000 Ba
atom 2.5000000000000000 2.5000000000000000 58.0000000000000000 Ba
atom 7.5000000000000000 2.5000000000000000 58.0000000000000000 Ba
atom 2.5000000000000000 7.5000000000000000 58.0000000000000000 Ba
atom 7.5000000000000000 7.5000000000000000 58.0000000000000000 Ba
atom 5.0000000000000000 5.0000000000000000 55.5000000000000000 Zr
atom 10.0000000000000000 5.0000000000000000 55.5000000000000000 Zr
atom 5.0000000000000000 10.0000000000000000 55.5000000000000000 Zr
atom 10.0000000000000000 10.0000000000000000 55.5000000000000000 Zr
atom 5.0000000000000000 5.0000000000000000 60.5000000000000000 Zr
atom 10.0000000000000000 5.0000000000000000 60.5000000000000000 Zr
atom 5.0000000000000000 10.0000000000000000 60.5000000000000000 Zr
atom 10.0000000000000000 10.0000000000000000 60.5000000000000000 Zr
atom 5.0000000000000000 5.0000000000000000 53.0000000000000000 S
atom 10.0000000000000000 5.0000000000000000 53.0000000000000000 S
atom 5.0000000000000000 10.0000000000000000 53.0000000000000000 S
atom 10.0000000000000000 10.0000000000000000 53.0000000000000000 S
atom 5.0000000000000000 5.0000000000000000 58.0000000000000000 S
atom 10.0000000000000000 5.0000000000000000 58.0000000000000000 S
atom 5.0000000000000000 10.0000000000000000 58.0000000000000000 S
atom 10.0000000000000000 10.0000000000000000 58.0000000000000000 S
atom 5.0000000000000000 2.5000000000000000 55.5000000000000000 S
atom 10.0000000000000000 2.5000000000000000 55.5000000000000000 S
atom 5.0000000000000000 7.5000000000000000 55.5000000000000000 S
atom 10.0000000000000000 7.5000000000000000 55.5000000000000000 S
atom 5.0000000000000000 2.5000000000000000 60.5000000000000000 S
atom 10.0000000000000000 2.5000000000000000 60.5000000000000000 S
atom 5.0000000000000000 7.5000000000000000 60.5000000000000000 S
atom 10.0000000000000000 7.5000000000000000 60.5000000000000000 S
atom 2.5000000000000000 5.0000000000000000 55.5000000000000000 S
atom 7.5000000000000000 5.0000000000000000 55.5000000000000000 S
atom 2.5000000000000000 10.0000000000000000 55.5000000000000000 S
atom 7.5000000000000000 10.0000000000000000 55.5000000000000000 S
atom 2.5000000000000000 5.0000000000000000 60.5000000000000000 S
atom 7.5000000000000000 5.0000000000000000 60.5000000000000000 S
atom 2.5000000000000000 10.0000000000000000 60.5000000000000000 S
atom 7.5000000000000000 10.0000000000000000 60.5000000000000000 S
atom 2.5000000000000000 2.5000000000000000 63.0000000000000000 Ba
atom 7.5000000000000000 2.5000000000000000 63.0000000000000000 Ba
atom 2.5000000000000000 7.5000000000000000 63.0000000000000000 Ba
atom 7.5000000000000000 7.5000000000000000 63.0000000000000000 Ba
atom 2.5000000000000000 2.5000000000000000 68.0000000000000000 Ba
atom 7.5000000000000000 2.5000000000000000 68.0000000000000000 Ba
atom 2.5000000000000000 7.5000000000000000 68.0000000000000000 Ba
atom 7.5000000000000000 7.5000000000000000 68.0000000000000000 Ba
atom 5.0000000000000000 5.0000000000000000 65.5000000000000000 Zr
atom 10.0000000000000000 5.0000000000000000 65.5000000000000000 Zr
atom 5.0000000000000000 10.0000000000000000 65.5000000000000000 Zr
atom 10.0000000000000000 10.0000000000000000 65.5000000000000000 Zr
atom 5.0000000000000000 5.0000000000000000 70.5000000000000000 Zr
atom 10.0000000000000000 5.0000000000000000 70.5000000000000000 Zr
atom 5.0000000000000000 10.0000000000000000 70.5000000000000000 Zr
atom 10.0000000000000000 10.0000000000000000 70.5000000000000000 Zr
atom 5.0000000000000000 5.0000000000000000 63.0000000000000000 S
atom 10.0000000000000000 5.0000000000000000 63.0000000000000000 S
atom 5.0000000000000000 10.0000000000000000 63.0000000000000000 S
atom 10.0000000000000000 10.0000000000000000 63.0000000000000000 S
atom 5.0000000000000000 5.0000000000000000 68.0000000000000000 S
atom 10.0000000000000000 5.0000000000000000 68.0000000000000000 S
atom 5.0000000000000000 10.0000000000000000 68.0000000000000000 S
atom 10.0000000000000000 10.0000000000000000 68.0000000000000000 S
atom 5.0000000000000000 2.5000000000000000 65.5000000000000000 S
atom 10.0000000000000000 2.5000000000000000 65.5000000000000000 S
atom 5.0000000000000000 7.5000000000000000 65.5000000000000000 S
atom 10.0000000000000000 7.5000000000000000 65.5000000000000000 S
atom 5.0000000000000000 2.5000000000000000 70.5000000000000000 S
atom 10.0000000000000000 2.5000000000000000 70.5000000000000000 S
atom 5.0000000000000000 7.5000000000000000 70.5000000000000000 S
atom 10.0000000000000000 7.5000000000000000 70.5000000000000000 S
atom 2.5000000000000000 5.0000000000000000 65.5000000000000000 S
atom 7.5000000000000000 5.0000000000000000 65.5000000000000000 S
atom 2.5000000000000000 10.0000000000000000 65.5000000000000000 S
atom 7.5000000000000000 10.0000000000000000 65.5000000000000000 S
atom 2.5000000000000000 5.0000000000000000 70.5000000000000000 S
atom 7.5000000000000000 5.0000000000000000 70.5000000000000000 S
atom 2.5000000000000000 10.0000000000000000 70.5000000000000000 S
atom 7.5000000000000000 10.0000000000000000 70.5000000000000000 S
atom 2.5000000000000000 2.5000000000000000 73.0000000000000000 Ba
atom 7.5000000000000000 2.5000000000000000 73.0000000000000000 Ba
atom 2.5000000000000000 7.5000000000000000 73.0000000000000000 Ba
atom 7.5000000000000000 7.5000000000000000 73.0000000000000000 Ba
atom 2.5000000000000000 2.5000000000000000 78.0000000000000000 Ba
atom 7.5000000000000000 2.5000000000000000 78.0000000000000000 Ba
atom 2.5000000000000000 7.5000000000000000 78.0000000000000000 Ba
atom 7.5000000000000000 7.5000000000000000 78.0000000000000000 Ba
atom 5.0000000000000000 5.0000000000000000 75.5000000000000000 Zr
atom 10.0000000000000000 5.0000000000000000 75.5000000000000000 Zr
atom 5.0000000000000000 10.0000000000000000 75.5000000000000000 Zr
atom 10.0000000000000000 10.0000000000000000 75.5000000000000000 Zr
atom 5.0000000000000000 5.0000000000000000 80.5000000000000000 Zr
atom 10.0000000000000000 5.0000000000000000 80.5000000000000000 Zr
atom 5.0000000000000000 10.0000000000000000 80.5000000000000000 Zr
atom 10.0000000000000000 10.0000000000000000 80.5000000000000000 Zr
atom 5.0000000000000000 5.0000000000000000 73.0000000000000000 S
atom 10.0000000000000000 5.0000000000000000 73.0000000000000000 S
atom 5.0000000000000000 10.0000000000000000 73.0000000000000000 S
atom 10.0000000000000000 10.0000000000000000 73.0000000000000000 S
atom 5.0000000000000000 5.0000000000000000 78.0000000000000000 S
atom 10.0000000000000000 5.0000000000000000 78.0000000000000000 S
atom 5.0000000000000000 10.0000000000000000 78.0000000000000000 S
atom 10.0000000000000000 10.0000000000000000 78.0000000000000000 S
atom 5.0000000000000000 2.5000000000000000 75.5000000000000000 S
atom 10.0000000000000000 2.5000000000000000 75.5000000000000000 S
atom 5.0000000000000000 7.5000000000000000 75.5000000000000000 S
atom 10.0000000000000000 7.5000000000000000 75.5000000000000000 S
atom 5.0000000000000000 2.5000000000000000 80.5000000000000000 S
atom 10.0000000000000000 2.5000000000000000 80.5000000000000000 S
atom 5.0000000000000000 7.5000000000000000 80.5000000000000000 S
atom 10.0000000000000000 7.5000000000000000 80.5000000000000000 S
atom 2.5000000000000000 5.0000000000000000 75.5000000000000000 S
atom 7.5000000000000000 5.0000000000000000 75.5000000000000000 S
atom 2.5000000000000000 10.0000000000000000 75.5000000000000000 S
atom 7.5000000000000000 10.0000000000000000 75.5000000000000000 S
atom 2.5000000000000000 5.0000000000000000 80.5000000000000000 S
atom 7.5000000000000000 5.0000000000000000 80.5000000000000000 S
atom 2.5000000000000000 10.0000000000000000 80.5000000000000000 S
atom 7.5000000000000000 10.0000000000000000 80.5000000000000000 S
atom 2.5000000000000000 2.5000000000000000 83.0000000000000000 Ba
atom 7.5000000000000000 2.5000000000000000 83.0000000000000000 Ba
atom 2.5000000000000000 7.5000000000000000 83.0000000000000000 Ba
atom 7.5000000000000000 7.5000000000000000 83.0000000000000000 Ba
atom 5.0000000000000000 5.0000000000000000 83.0000000000000000 S
atom 10.0000000000000000 5.0000000000000000 83.0000000000000000 S
atom 5.0000000000000000 10.0000000000000000 83.0000000000000000 S
atom 10.0000000000000000 10.0000000000000000 83.0000000000000000 S
