#=======================================================
# FHI-aims file: /mnt/lustre/a2fs-work2/work/e05/e05/prakaya/chalcogenide_perovskites/redo/ternary/tilted_perovskites/RP_phase_tilt_n_2_63/relaxation/geometry.in.next_step
# Created using the Atomic Simulation Environment (ASE)
# Mon Mar 25 06:23:41 2024

# Additional information:
#  Relaxed with BFGS, fmax=1.000 meV/AA
#  nsteps = 22
#  residual force  = 0.191373 meV/AA
#  residual stress = 0.281631 meV/AA
#=======================================================
lattice_vector 12.6025487950140000 -3.5732937985020001 0.0000000000000000 
lattice_vector 12.6025487950140000 3.5732937985020001 0.0000000000000000 
lattice_vector 0.0000000000000000 0.0000000000000000 6.9488063934130002 
atom_frac 0.9145392856630000 0.4479704538369999 0.7499999999999999 Ba
atom_frac 0.4479704538370001 0.9145392856629999 0.2500000000000000 Ba
atom_frac 0.7548348341759999 0.2451651658240000 0.7499999999999999 Ba
atom_frac 0.2451651658240000 0.7548348341759999 0.2500000000000000 Ba
atom_frac 0.3495071086770001 0.8502403518490000 0.7499999999999999 Zr
atom_frac 0.8502403518490002 0.3495071086770000 0.2500000000000000 Zr
atom_frac 0.1497596481510000 0.6504928913230000 0.7499999999999999 Zr
atom_frac 0.6504928913230000 0.1497596481510000 0.2500000000000000 Zr
atom_frac 0.4952587470300000 0.9014816646700001 0.7499999999999999 S
atom_frac 0.9014816646699998 0.4952587470299999 0.2500000000000000 S
atom_frac 0.1941543966800000 0.8058456033200000 0.7499999999999999 S
atom_frac 0.8058456033200001 0.1941543966800000 0.2500000000000000 S
atom_frac 0.1064387410610000 0.1064387410610000 0.4999999999999999 S
atom_frac 0.5858569451070000 0.5858569451070000 0.0000000000000000 S
atom_frac 0.8935612589390000 0.8935612589390000 0.4999999999999999 S
atom_frac 0.4141430548930001 0.4141430548930000 0.0000000000000000 S
atom_frac 0.1064387410610000 0.1064387410610000 0.0000000000000000 S
atom_frac 0.5858569451070000 0.5858569451070000 0.4999999999999999 S
atom_frac 0.8935612589390000 0.8935612589390000 0.0000000000000000 S
atom_frac 0.4141430548930001 0.4141430548930000 0.4999999999999999 S
atom_frac 0.5520295461630000 0.0854607143370000 0.7499999999999999 Ba
atom_frac 0.0854607143370000 0.5520295461630000 0.2500000000000000 Ba
atom_frac 0.0985183353300000 0.5047412529700001 0.7499999999999999 S
atom_frac 0.5047412529700001 0.0985183353300000 0.2500000000000000 S
