#=======================================================
# FHI-aims file: /mnt/lustre/a2fs-work2/work/e05/e05/prakaya/chalcogenide_perovskites/redo/ternary/tilted_perovskites/RP_phase_tilt_134/relaxation/geometry.in.next_step
# Created using the Atomic Simulation Environment (ASE)
# Sun Mar 24 22:41:05 2024

# Additional information:
#  Relaxed with BFGS, fmax=1.000 meV/AA
#  nsteps = 6
#  residual force  = 0.002482 meV/AA
#  residual stress = 0.030484 meV/AA
#=======================================================
lattice_vector 6.9894340024839998 0.0000000000000000 -0.0000000000000000 
lattice_vector 0.0000000000000000 6.9894340024839998 0.0000000000000000 
lattice_vector 0.0000000000000000 -0.0000000000000000 15.6000288111969994 
atom_frac 0.7416222611479999 0.7416222611479999 0.6087067648790000 Ba
atom_frac 0.2583777388519999 0.2583777388519999 0.6087067648790000 Ba
atom_frac 0.7583777388519999 0.7583777388519999 0.8912932351209999 Ba
atom_frac 0.2416222611480000 0.2416222611480000 0.8912932351209999 Ba
atom_frac 0.7499999999999999 0.2500000000000000 0.7499999999999999 Zr
atom_frac 0.2500000000000000 0.7499999999999999 0.7499999999999999 Zr
atom_frac 0.7376657033969999 0.2623342966030000 0.5861848911370000 S
atom_frac 0.2623342966030000 0.7376657033969999 0.5861848911370000 S
atom_frac 0.7623342966030000 0.2376657033970000 0.9138151088629999 S
atom_frac 0.2376657033970000 0.7623342966030000 0.9138151088629999 S
atom_frac 0.0000000000000000 0.0000000000000000 0.7417601585290000 S
atom_frac 0.4999999999999999 0.4999999999999999 0.7582398414709999 S
atom_frac 0.4999999999999999 0.0000000000000000 0.7499999999999999 S
atom_frac 0.0000000000000000 0.4999999999999999 0.7499999999999999 S
atom_frac 0.7583777388519999 0.2416222611480000 0.1087067648790000 Ba
atom_frac 0.2416222611480000 0.7583777388519999 0.1087067648790000 Ba
atom_frac 0.7416222611479999 0.2583777388519999 0.3912932351209999 Ba
atom_frac 0.2583777388519999 0.7416222611479999 0.3912932351209999 Ba
atom_frac 0.7499999999999999 0.7499999999999999 0.2500000000000000 Zr
atom_frac 0.2500000000000000 0.2500000000000000 0.2500000000000000 Zr
atom_frac 0.7623342966030000 0.7623342966030000 0.0861848911370000 S
atom_frac 0.2376657033970000 0.2376657033970000 0.0861848911370000 S
atom_frac 0.7376657033969999 0.7376657033969999 0.4138151088629999 S
atom_frac 0.2623342966030000 0.2623342966030000 0.4138151088629999 S
atom_frac 0.0000000000000000 0.4999999999999999 0.2500000000000000 S
atom_frac 0.4999999999999999 0.0000000000000000 0.2500000000000000 S
atom_frac 0.4999999999999999 0.4999999999999999 0.2417601585290000 S
atom_frac 0.0000000000000000 0.0000000000000000 0.2582398414710000 S
