#=======================================================
# FHI-aims file: /mnt/lustre/a2fs-work2/work/e05/e05/prakaya/chalcogenide_perovskites/redo/ternary/tilted_perovskites/RP_phase_tilt_n_3_127/relaxation/geometry.in.next_step
# Created using the Atomic Simulation Environment (ASE)
# Mon Mar 25 11:10:21 2024

# Additional information:
#  Relaxed with BFGS, fmax=1.000 meV/AA
#  nsteps = 2
#  residual force  = 0.172610 meV/AA
#  residual stress = 0.645797 meV/AA
#=======================================================
lattice_vector 7.0068949533360003 0.0000000000000000 -0.0000000000000000 
lattice_vector 0.0000000000000000 7.0068949533360003 -0.0000000000000000 
lattice_vector -0.0000000000000000 -0.0000000000000000 35.5502706414199992 
atom_frac 0.5000000000000000 0.0000000000000000 0.2985693243430000 Ba
atom_frac 0.0000000000000000 0.5000000000000000 0.2985693243430000 Ba
atom_frac 0.5000000000000000 0.0000000000000000 0.4294582807030000 Ba
atom_frac 0.0000000000000000 0.5000000000000000 0.4294582807030000 Ba
atom_frac 0.5000000000000000 0.5000000000000000 0.3569721998800000 Zr
atom_frac 0.0000000000000000 0.0000000000000000 0.3569721998800000 Zr
atom_frac 0.5000000000000000 0.5000000000000000 0.5000000000000000 Zr
atom_frac 0.0000000000000000 0.0000000000000000 0.5000000000000000 Zr
atom_frac 0.5000000000000000 0.5000000000000000 0.2864641878400000 S
atom_frac 0.0000000000000000 0.0000000000000000 0.2864641878400000 S
atom_frac 0.5000000000000000 0.5000000000000000 0.4293520463539999 S
atom_frac 0.0000000000000000 0.0000000000000000 0.4293520463539999 S
atom_frac 0.7281079609970000 0.2281079609970000 0.3602691593990000 S
atom_frac 0.2718920390030000 0.7718920390030001 0.3602691593990000 S
atom_frac 0.8064296568420000 0.3064296568420001 0.5000000000000000 S
atom_frac 0.1935703431580000 0.6935703431580000 0.5000000000000000 S
atom_frac 0.2281079609970000 0.2718920390030000 0.3602691593990000 S
atom_frac 0.7718920390030001 0.7281079609970000 0.3602691593990000 S
atom_frac 0.3064296568420001 0.1935703431580000 0.5000000000000000 S
atom_frac 0.6935703431580000 0.8064296568420000 0.5000000000000000 S
atom_frac 0.5000000000000000 0.0000000000000000 0.5705417192970000 Ba
atom_frac 0.0000000000000000 0.5000000000000000 0.5705417192970000 Ba
atom_frac 0.5000000000000000 0.0000000000000000 0.7014306756569999 Ba
atom_frac 0.0000000000000000 0.5000000000000000 0.7014306756569999 Ba
atom_frac 0.5000000000000000 0.5000000000000000 0.6430278001200000 Zr
atom_frac 0.0000000000000000 0.0000000000000000 0.6430278001200000 Zr
atom_frac 0.5000000000000000 0.5000000000000000 0.5706479536460000 S
atom_frac 0.0000000000000000 0.0000000000000000 0.5706479536460000 S
atom_frac 0.5000000000000000 0.5000000000000000 0.7135358121599999 S
atom_frac 0.0000000000000000 0.0000000000000000 0.7135358121599999 S
atom_frac 0.7281079609970000 0.2281079609970000 0.6397308406010001 S
atom_frac 0.2718920390030000 0.7718920390030001 0.6397308406010001 S
atom_frac 0.2281079609970000 0.2718920390030000 0.6397308406010001 S
atom_frac 0.7718920390030001 0.7281079609970000 0.6397308406010001 S
atom_frac 0.5000000000000000 0.5000000000000000 0.8003821517050000 Ba
atom_frac 0.0000000000000000 0.0000000000000000 0.8003821517050000 Ba
atom_frac 0.5000000000000000 0.5000000000000000 0.9326580086360000 Ba
atom_frac 0.0000000000000000 0.0000000000000000 0.9326580086360000 Ba
atom_frac 0.5000000000000000 0.0000000000000000 0.8574474830619999 Zr
atom_frac 0.0000000000000000 0.5000000000000000 0.8574474830619999 Zr
atom_frac 0.5000000000000000 0.0000000000000000 0.0000000000000000 Zr
atom_frac 0.0000000000000000 0.5000000000000000 0.0000000000000000 Zr
atom_frac 0.5000000000000000 0.0000000000000000 0.7874114782259999 S
atom_frac 0.0000000000000000 0.5000000000000000 0.7874114782259999 S
atom_frac 0.5000000000000000 0.0000000000000000 0.9296827806269999 S
atom_frac 0.0000000000000000 0.5000000000000000 0.9296827806269999 S
atom_frac 0.7499691689969999 0.7500308310030001 0.8611979676479999 S
atom_frac 0.2500308310030000 0.2499691689970000 0.8611979676479999 S
atom_frac 0.7500074473850000 0.7499925526150000 0.0000000000000000 S
atom_frac 0.2499925526150000 0.2500074473850000 0.0000000000000000 S
atom_frac 0.2499691689970000 0.7499691689969999 0.8611979676479999 S
atom_frac 0.7500308310030001 0.2500308310030000 0.8611979676479999 S
atom_frac 0.2500074473850000 0.7500074473850000 0.0000000000000000 S
atom_frac 0.7499925526150000 0.2499925526150000 0.0000000000000000 S
atom_frac 0.5000000000000000 0.5000000000000000 0.0673419913640000 Ba
atom_frac 0.0000000000000000 0.0000000000000000 0.0673419913640000 Ba
atom_frac 0.5000000000000000 0.5000000000000000 0.1996178482950000 Ba
atom_frac 0.0000000000000000 0.0000000000000000 0.1996178482950000 Ba
atom_frac 0.5000000000000000 0.0000000000000000 0.1425525169380000 Zr
atom_frac 0.0000000000000000 0.5000000000000000 0.1425525169380000 Zr
atom_frac 0.5000000000000000 0.0000000000000000 0.0703172193730000 S
atom_frac 0.0000000000000000 0.5000000000000000 0.0703172193730000 S
atom_frac 0.5000000000000000 0.0000000000000000 0.2125885217740000 S
atom_frac 0.0000000000000000 0.5000000000000000 0.2125885217740000 S
atom_frac 0.7499691689969999 0.7500308310030001 0.1388020323520000 S
atom_frac 0.2500308310030000 0.2499691689970000 0.1388020323520000 S
atom_frac 0.2499691689970000 0.7499691689969999 0.1388020323520000 S
atom_frac 0.7500308310030001 0.2500308310030000 0.1388020323520000 S
