#=======================================================
# FHI-aims file: /mnt/lustre/a2fs-work2/work/e05/e05/prakaya/chalcogenide_perovskites/redo/ternary/tilted_perovskites/RP_phase_tilt_n_3_64/relaxation/geometry.in.next_step
# Created using the Atomic Simulation Environment (ASE)
# Mon Mar 25 07:21:37 2024

# Additional information:
#  Relaxed with BFGS, fmax=1.000 meV/AA
#  nsteps = 0
#  residual force  = 0.214838 meV/AA
#  residual stress = 0.269829 meV/AA
#=======================================================
lattice_vector 3.4785113599430000 -17.5129278216609983 0.0000000000000000 
lattice_vector 3.4785113599430000 17.5129278216609983 0.0000000000000000 
lattice_vector 0.0000000000000000 0.0000000000000000 7.1440435444970003 
atom_frac 0.7996692018000000 0.2003307982000000 -0.0166650011790000 Ba
atom_frac 0.2996692018000000 0.7003307982000000 0.5166650011780000 Ba
atom_frac 0.9313193777050000 0.0686806222950000 -0.0007779162590000 Ba
atom_frac 0.4313193777050001 0.5686806222950000 0.5007779162580001 Ba
atom_frac 0.8576453307720000 0.1423546692280000 0.4992393601490001 Zr
atom_frac 0.3576453307720001 0.6423546692280000 0.0007606398500000 Zr
atom_frac -0.0000000000000000 0.0000000000000000 0.5000000000000000 Zr
atom_frac 0.5000000000000000 0.5000000000000000 0.0000000000000000 Zr
atom_frac 0.7870535986870000 0.2129464013130000 0.5484050684510000 S
atom_frac 0.2870535986869999 0.7129464013129999 0.9515949315480001 S
atom_frac 0.9296330488290000 0.0703669511709999 0.4363715131580000 S
atom_frac 0.4296330488289999 0.5703669511710000 0.0636284868410000 S
atom_frac 0.1027086342660000 0.3972913657340000 0.2500000000000000 S
atom_frac 0.6185912331509998 0.8814087668489999 0.7500000000000000 S
atom_frac 0.2598941015830000 0.2401058984170000 0.2500000000000000 S
atom_frac 0.7401058984170001 0.7598941015830001 0.7500000000000000 S
atom_frac 0.6027086342659999 0.8972913657339999 0.2500000000000000 S
atom_frac 0.1185912331510000 0.3814087668490000 0.7500000000000000 S
atom_frac 0.7598941015829999 0.7401058984169999 0.2500000000000000 S
atom_frac 0.2401058984170000 0.2598941015830000 0.7500000000000000 S
atom_frac 0.0686806222949999 0.9313193777049998 0.0007779162580000 Ba
atom_frac 0.5686806222950000 0.4313193777050000 0.4992220837410001 Ba
atom_frac 0.2003307981999999 0.7996692017999999 0.0166650011780000 Ba
atom_frac 0.7003307981999999 0.2996692018000000 0.4833349988210000 Ba
atom_frac 0.1423546692279999 0.8576453307720000 0.5007606398500000 Zr
atom_frac 0.6423546692280000 0.3576453307720000 -0.0007606398510000 Zr
atom_frac 0.0703669511709999 0.9296330488289999 0.5636284868410000 S
atom_frac 0.5703669511709999 0.4296330488289999 0.9363715131580000 S
atom_frac 0.2129464013130000 0.7870535986870000 0.4515949315480001 S
atom_frac 0.7129464013130000 0.2870535986870000 0.0484050684510000 S
atom_frac 0.3814087668490000 0.1185912331510000 0.2500000000000000 S
atom_frac 0.8972913657340001 0.6027086342660001 0.7500000000000000 S
atom_frac 0.8814087668490000 0.6185912331509998 0.2500000000000000 S
atom_frac 0.3972913657340000 0.1027086342660000 0.7500000000000000 S
