#=======================================================
# FHI-aims file: /mnt/lustre/a2fs-work2/work/e05/e05/prakaya/chalcogenide_perovskites/redo/ternary/tilted_perovskites/RP_phase_tilt_n_3_48/relaxation/geometry.in.next_step
# Created using the Atomic Simulation Environment (ASE)
# Mon Mar 25 09:08:32 2024

# Additional information:
#  Relaxed with BFGS, fmax=1.000 meV/AA
#  nsteps = 5
#  residual force  = 0.921777 meV/AA
#  residual stress = 0.872757 meV/AA
#=======================================================
lattice_vector 7.0585317305960000 0.0000000000000000 0.0000000000000000 
lattice_vector 0.0000000000000000 7.0585660405019999 0.0000000000000000 
lattice_vector 0.0000000000000000 0.0000000000000000 35.0342263354789978 
atom_frac 0.2327558139450000 0.7327432998350001 0.0504070370450000 Ba
atom_frac 0.7672441860550000 0.2672567001650000 0.0504070370450000 Ba
atom_frac 0.2529571011070000 0.7529908053560002 0.1816601596160000 Ba
atom_frac 0.7470428988930000 0.2470091946440000 0.1816601596160000 Ba
atom_frac 0.7481041891540000 0.7518922344680001 0.1079100754950000 Zr
atom_frac 0.2518958108460000 0.2481077655320000 0.1079100754950000 Zr
atom_frac 0.7500000000000000 0.7500000000000000 0.2500000000000000 Zr
atom_frac 0.2500000000000000 0.2500000000000000 0.2500000000000000 Zr
atom_frac 0.7796740175910000 0.7203062733920002 0.0373616387070000 S
atom_frac 0.2203259824090000 0.2796937266080001 0.0373616387070000 S
atom_frac 0.7022257471280000 0.7977307697500000 0.1798103537820000 S
atom_frac 0.2977742528720000 0.2022692302500000 0.1798103537820000 S
atom_frac 0.5000000000000000 0.5000000000000000 0.1118007833900000 S
atom_frac 0.0000000000000000 0.0000000000000000 0.1117975510400000 S
atom_frac 0.5000000000000000 0.5000000000000000 0.2500131042710000 S
atom_frac 0.0000000000000000 0.0000000000000000 0.2499868957290000 S
atom_frac 0.5000000000000000 0.0000000000000000 0.0993101349600000 S
atom_frac 0.0000000000000000 0.5000000000000000 0.1208116733710000 S
atom_frac 0.5000000000000000 0.0000000000000000 0.2633435263690000 S
atom_frac 0.0000000000000000 0.5000000000000000 0.2366564736310000 S
atom_frac 0.2470428988930000 0.7470091946440001 0.3183398403840000 Ba
atom_frac 0.7529571011070000 0.2529908053560000 0.3183398403840000 Ba
atom_frac 0.2672441860550000 0.7672567001650001 0.4495929629550000 Ba
atom_frac 0.7327558139450000 0.2327432998350000 0.4495929629550000 Ba
atom_frac 0.7518958108460000 0.7481077655320001 0.3920899245050000 Zr
atom_frac 0.2481041891540000 0.2518922344680000 0.3920899245050000 Zr
atom_frac 0.7977742528720000 0.7022692302500001 0.3201896462180000 S
atom_frac 0.2022257471280000 0.2977307697500000 0.3201896462180000 S
atom_frac 0.7203259824090001 0.7796937266080001 0.4626383612930000 S
atom_frac 0.2796740175910000 0.2203062733920000 0.4626383612930000 S
atom_frac 0.5000000000000000 0.5000000000000000 0.3882024489600000 S
atom_frac 0.0000000000000000 0.0000000000000000 0.3881992166100000 S
atom_frac 0.5000000000000000 0.0000000000000000 0.3791883266290000 S
atom_frac 0.0000000000000000 0.5000000000000000 0.4006898650400000 S
atom_frac 0.7327558139450000 0.7672567001650001 0.5504070370450000 Ba
atom_frac 0.2672441860550000 0.2327432998350000 0.5504070370450000 Ba
atom_frac 0.7529571011070000 0.7470091946440001 0.6816601596160000 Ba
atom_frac 0.2470428988930000 0.2529908053560000 0.6816601596160000 Ba
atom_frac 0.2481041891540000 0.7481077655320001 0.6079100754949999 Zr
atom_frac 0.7518958108460000 0.2518922344680000 0.6079100754949999 Zr
atom_frac 0.2500000000000000 0.7500000000000000 0.7500000000000000 Zr
atom_frac 0.7500000000000000 0.2500000000000000 0.7500000000000000 Zr
atom_frac 0.2796740175910000 0.7796937266080001 0.5373616387070000 S
atom_frac 0.7203259824090001 0.2203062733920000 0.5373616387070000 S
atom_frac 0.2022257471280000 0.7022692302500001 0.6798103537820001 S
atom_frac 0.7977742528720000 0.2977307697500000 0.6798103537820001 S
atom_frac 0.0000000000000000 0.5000000000000000 0.5993101349599999 S
atom_frac 0.5000000000000000 0.0000000000000000 0.6208116733710000 S
atom_frac 0.0000000000000000 0.5000000000000000 0.7633435263690000 S
atom_frac 0.5000000000000000 0.0000000000000000 0.7366564736310000 S
atom_frac 0.0000000000000000 0.0000000000000000 0.6118007833900000 S
atom_frac 0.5000000000000000 0.5000000000000000 0.6117975510400000 S
atom_frac 0.0000000000000000 0.0000000000000000 0.7500131042710000 S
atom_frac 0.5000000000000000 0.5000000000000000 0.7499868957290000 S
atom_frac 0.7470428988930000 0.7529908053560002 0.8183398403840000 Ba
atom_frac 0.2529571011070000 0.2470091946440000 0.8183398403840000 Ba
atom_frac 0.7672441860550000 0.7327432998350001 0.9495929629549998 Ba
atom_frac 0.2327558139450000 0.2672567001650000 0.9495929629549998 Ba
atom_frac 0.2518958108460000 0.7518922344680001 0.8920899245050000 Zr
atom_frac 0.7481041891540000 0.2481077655320000 0.8920899245050000 Zr
atom_frac 0.2977742528720000 0.7977307697500000 0.8201896462179999 S
atom_frac 0.7022257471280000 0.2022692302500000 0.8201896462179999 S
atom_frac 0.2203259824090000 0.7203062733920002 0.9626383612930000 S
atom_frac 0.7796740175910000 0.2796937266080001 0.9626383612930000 S
atom_frac 0.0000000000000000 0.5000000000000000 0.8791883266290000 S
atom_frac 0.5000000000000000 0.0000000000000000 0.9006898650400000 S
atom_frac 0.0000000000000000 0.0000000000000000 0.8882024489599999 S
atom_frac 0.5000000000000000 0.5000000000000000 0.8881992166100000 S
