#=======================================================
# FHI-aims file: /mnt/lustre/a2fs-work2/work/e05/e05/prakaya/chalcogenide_perovskites/redo/ternary/tilted_perovskites/RP_phase_tilt_66/relaxation/geometry.in.next_step
# Created using the Atomic Simulation Environment (ASE)
# Sun Mar 24 21:50:25 2024

# Additional information:
#  Relaxed with BFGS, fmax=1.000 meV/AA
#  nsteps = 33
#  residual force  = 0.271796 meV/AA
#  residual stress = 0.133356 meV/AA
#=======================================================
lattice_vector 3.5096065158020000 -7.7999989778929999 0.0000000000000000 
lattice_vector 3.5096065158020000 7.7999989778929999 0.0000000000000000 
lattice_vector 0.0000000000000000 0.0000000000000000 6.9592504714769996 
atom_frac 0.8706502788400000 0.6532398177020000 0.0000000000000000 Ba
atom_frac 0.3467601822980000 0.1293497211600000 0.4999999999999999 Ba
atom_frac 0.1293497211600000 0.3467601822980000 0.0000000000000000 Ba
atom_frac 0.6532398177020000 0.8706502788400000 0.4999999999999999 Ba
atom_frac 0.5000000000000000 0.0000000000000000 0.0000000000000000 Zr
atom_frac -0.0000000000000000 0.5000000000000000 0.4999999999999999 Zr
atom_frac 0.3188365679189999 1.1464709042560000 0.0000000000000000 S
atom_frac -0.1464709042560000 0.6811634320810001 0.4999999999999999 S
atom_frac 0.6811634320810001 -0.1464709042560000 0.0000000000000000 S
atom_frac 1.1464709042560000 0.3188365679190001 0.4999999999999999 S
atom_frac 0.7441607453690001 0.2558392546309999 0.2500000000000000 S
atom_frac 0.2558392546310000 0.7441607453690000 0.7500000000000000 S
atom_frac 0.7441607453690001 0.2558392546309999 0.7500000000000000 S
atom_frac 0.2558392546310000 0.7441607453690000 0.2500000000000000 S
