#=======================================================
# FHI-aims file: /mnt/lustre/a2fs-work2/work/e05/e05/prakaya/chalcogenide_perovskites/redo/ternary/tilted_perovskites/RP_phase_tilt_48/relaxation/geometry.in.next_step
# Created using the Atomic Simulation Environment (ASE)
# Sun Mar 24 22:41:46 2024

# Additional information:
#  Relaxed with BFGS, fmax=1.000 meV/AA
#  nsteps = 9
#  residual force  = 0.099609 meV/AA
#  residual stress = 0.563948 meV/AA
#=======================================================
lattice_vector 6.9871794624310004 0.0000000000000000 0.0000000000000000 
lattice_vector 0.0000000000000000 6.9916294617680004 0.0000000000000000 
lattice_vector 0.0000000000000000 0.0000000000000000 15.6000797439269991 
atom_frac 0.2419580426240000 0.7413206857550000 0.1087060594700000 Ba
atom_frac 0.7580419573760001 0.2586793142450000 0.1087060594700000 Ba
atom_frac 0.2580419573760000 0.7586793142450000 0.3912939405299999 Ba
atom_frac 0.7419580426240000 0.2413206857550000 0.3912939405299999 Ba
atom_frac 0.7500000000000000 0.7500000000000000 0.2500000000000000 Zr
atom_frac 0.2500000000000000 0.2500000000000000 0.2500000000000000 Zr
atom_frac 0.7618489227050002 0.7372339185740000 0.0861845799430000 S
atom_frac 0.2381510772950000 0.2627660814260000 0.0861845799430000 S
atom_frac 0.7381510772950001 0.7627660814260000 0.4138154200570000 S
atom_frac 0.2618489227050000 0.2372339185740000 0.4138154200570000 S
atom_frac 0.5000000000000000 0.5000000000000000 0.2503080187420000 S
atom_frac 0.0000000000000000 0.0000000000000000 0.2496919812580000 S
atom_frac 0.5000000000000000 0.0000000000000000 0.2417784022730000 S
atom_frac 0.0000000000000000 0.5000000000000000 0.2582215977270000 S
atom_frac 0.7419580426240000 0.7586793142450000 0.6087060594700000 Ba
atom_frac 0.2580419573760000 0.2413206857550000 0.6087060594700000 Ba
atom_frac 0.7580419573760001 0.7413206857550000 0.8912939405300000 Ba
atom_frac 0.2419580426240000 0.2586793142450000 0.8912939405300000 Ba
atom_frac 0.2500000000000000 0.7500000000000000 0.7500000000000000 Zr
atom_frac 0.7500000000000000 0.2500000000000000 0.7500000000000000 Zr
atom_frac 0.2618489227050000 0.7627660814260000 0.5861845799430000 S
atom_frac 0.7381510772950001 0.2372339185740000 0.5861845799430000 S
atom_frac 0.2381510772950000 0.7372339185740000 0.9138154200569999 S
atom_frac 0.7618489227050002 0.2627660814260000 0.9138154200569999 S
atom_frac 0.0000000000000000 0.5000000000000000 0.7417784022730000 S
atom_frac 0.5000000000000000 0.0000000000000000 0.7582215977270000 S
atom_frac 0.0000000000000000 0.0000000000000000 0.7503080187420000 S
atom_frac 0.5000000000000000 0.5000000000000000 0.7496919812579999 S
