#=======================================================
# FHI-aims file: /mnt/lustre/a2fs-work2/work/e05/e05/prakaya/chalcogenide_perovskites/redo/ternary/tilted_perovskites/RP_phase_tilt_n_3_134/relaxation/geometry.in.next_step
# Created using the Atomic Simulation Environment (ASE)
# Mon Mar 25 08:35:22 2024

# Additional information:
#  Relaxed with BFGS, fmax=1.000 meV/AA
#  nsteps = 4
#  residual force  = 0.449282 meV/AA
#  residual stress = 0.960034 meV/AA
#=======================================================
lattice_vector 7.0585526338170004 -0.0000000000000000 0.0000000000000000 
lattice_vector -0.0000000000000000 7.0585526338170004 -0.0000000000000000 
lattice_vector -0.0000000000000000 0.0000000000000000 35.0342350097600033 
atom_frac 0.7327355037170000 0.7327355037170000 0.5504070381480000 Ba
atom_frac 0.2672644962829999 0.2672644962829999 0.5504070381480000 Ba
atom_frac 0.7529526080960000 0.7529526080960000 0.6816564303560000 Ba
atom_frac 0.2470473919040000 0.2470473919040000 0.6816564303560000 Ba
atom_frac 0.7519003458510000 0.2480996541490000 0.6079099169950000 Zr
atom_frac 0.2480996541490000 0.7519003458510000 0.6079099169950000 Zr
atom_frac 0.7499999999999999 0.2500000000000000 0.7500000000000000 Zr
atom_frac 0.2500000000000000 0.7499999999999999 0.7500000000000000 Zr
atom_frac 0.7203195623680000 0.2796804376320000 0.5373618475120000 S
atom_frac 0.2796804376320000 0.7203195623680000 0.5373618475120000 S
atom_frac 0.7977606096730000 0.2022393903270000 0.6798114575730000 S
atom_frac 0.2022393903270000 0.7977606096730000 0.6798114575730000 S
atom_frac 0.0000000000000000 0.0000000000000000 0.5993001598960001 S
atom_frac 0.4999999999999999 0.4999999999999999 0.6208059642670000 S
atom_frac 0.0000000000000000 0.0000000000000000 0.7633480455230000 S
atom_frac 0.4999999999999999 0.4999999999999999 0.7366519544770000 S
atom_frac 0.4999999999999999 0.0000000000000000 0.6118021904150001 S
atom_frac 0.0000000000000000 0.4999999999999999 0.6118021904150001 S
atom_frac 0.4999999999999999 0.0000000000000000 0.7500000000000000 S
atom_frac 0.0000000000000000 0.4999999999999999 0.7500000000000000 S
atom_frac 0.7470473919040000 0.7470473919040000 0.8183435696440001 Ba
atom_frac 0.2529526080960000 0.2529526080960000 0.8183435696440001 Ba
atom_frac 0.7672644962830000 0.7672644962830000 0.9495929618520000 Ba
atom_frac 0.2327355037170000 0.2327355037170000 0.9495929618520000 Ba
atom_frac 0.7480996541490000 0.2519003458510000 0.8920900830050001 Zr
atom_frac 0.2519003458510000 0.7480996541490000 0.8920900830050001 Zr
atom_frac 0.7022393903270000 0.2977606096729999 0.8201885424270000 S
atom_frac 0.2977606096729999 0.7022393903270000 0.8201885424270000 S
atom_frac 0.7796804376320000 0.2203195623680000 0.9626381524880000 S
atom_frac 0.2203195623680000 0.7796804376320000 0.9626381524880000 S
atom_frac 0.0000000000000000 0.0000000000000000 0.8791940357330001 S
atom_frac 0.4999999999999999 0.4999999999999999 0.9006998401039999 S
atom_frac 0.4999999999999999 0.0000000000000000 0.8881978095850001 S
atom_frac 0.0000000000000000 0.4999999999999999 0.8881978095850001 S
atom_frac 0.7672644962830000 0.2327355037170000 0.0504070381480000 Ba
atom_frac 0.2327355037170000 0.7672644962830000 0.0504070381480000 Ba
atom_frac 0.7470473919040000 0.2529526080960000 0.1816564303560000 Ba
atom_frac 0.2529526080960000 0.7470473919040000 0.1816564303560000 Ba
atom_frac 0.7480996541490000 0.7480996541490000 0.1079099169950000 Zr
atom_frac 0.2519003458510000 0.2519003458510000 0.1079099169950000 Zr
atom_frac 0.7499999999999999 0.7499999999999999 0.2500000000000000 Zr
atom_frac 0.2500000000000000 0.2500000000000000 0.2500000000000000 Zr
atom_frac 0.7796804376320000 0.7796804376320000 0.0373618475120000 S
atom_frac 0.2203195623680000 0.2203195623680000 0.0373618475120000 S
atom_frac 0.7022393903270000 0.7022393903270000 0.1798114575730000 S
atom_frac 0.2977606096729999 0.2977606096729999 0.1798114575730000 S
atom_frac 0.0000000000000000 0.4999999999999999 0.1118021904150000 S
atom_frac 0.4999999999999999 0.0000000000000000 0.1118021904150000 S
atom_frac 0.0000000000000000 0.4999999999999999 0.2500000000000000 S
atom_frac 0.4999999999999999 0.0000000000000000 0.2500000000000000 S
atom_frac 0.4999999999999999 0.4999999999999999 0.0993001598960000 S
atom_frac 0.0000000000000000 0.0000000000000000 0.1208059642670000 S
atom_frac 0.4999999999999999 0.4999999999999999 0.2633480455230000 S
atom_frac 0.0000000000000000 0.0000000000000000 0.2366519544770000 S
atom_frac 0.7529526080960000 0.2470473919040000 0.3183435696440000 Ba
atom_frac 0.2470473919040000 0.7529526080960000 0.3183435696440000 Ba
atom_frac 0.7327355037170000 0.2672644962829999 0.4495929618520000 Ba
atom_frac 0.2672644962829999 0.7327355037170000 0.4495929618520000 Ba
atom_frac 0.7519003458510000 0.7519003458510000 0.3920900830050000 Zr
atom_frac 0.2480996541490000 0.2480996541490000 0.3920900830050000 Zr
atom_frac 0.7977606096730000 0.7977606096730000 0.3201885424270001 S
atom_frac 0.2022393903270000 0.2022393903270000 0.3201885424270001 S
atom_frac 0.7203195623680000 0.7203195623680000 0.4626381524880000 S
atom_frac 0.2796804376320000 0.2796804376320000 0.4626381524880000 S
atom_frac 0.0000000000000000 0.4999999999999999 0.3881978095850000 S
atom_frac 0.4999999999999999 0.0000000000000000 0.3881978095850000 S
atom_frac 0.4999999999999999 0.4999999999999999 0.3791940357330000 S
atom_frac 0.0000000000000000 0.0000000000000000 0.4006998401040000 S
