#=======================================================
# FHI-aims file: /mnt/lustre/a2fs-work2/work/e05/e05/prakaya/chalcogenide_perovskites/redo/ternary/tilted_perovskites/RP_phase_tilt_n_2_50/relaxation/geometry.in.next_step
# Created using the Atomic Simulation Environment (ASE)
# Mon Mar 25 00:06:30 2024

# Additional information:
#  Relaxed with BFGS, fmax=1.000 meV/AA
#  nsteps = 6
#  residual force  = 0.202537 meV/AA
#  residual stress = 0.500581 meV/AA
#=======================================================
lattice_vector 6.9233751225670002 0.0000000000000000 0.0000000000000000 
lattice_vector 0.0000000000000000 6.9223864792579999 0.0000000000000000 
lattice_vector 0.0000000000000000 0.0000000000000000 26.1120518188729989 
atom_frac 0.0000000000000000 0.0000000000000000 0.3144062253230000 Ba
atom_frac 0.5000000000000000 0.5000000000000000 0.3144062253230000 Ba
atom_frac 0.0000000000000000 0.0000000000000000 0.5000000000000000 Ba
atom_frac 0.5000000000000000 0.5000000000000000 0.5000000000000000 Ba
atom_frac 0.5000000000000000 0.0000000000000000 0.4013880262200000 Zr
atom_frac 0.0000000000000000 0.5000000000000000 0.4013880262200000 Zr
atom_frac 0.5000000000000000 0.0000000000000000 0.5986119737800000 Zr
atom_frac 0.0000000000000000 0.5000000000000000 0.5986119737800000 Zr
atom_frac 0.5000000000000000 0.0000000000000000 0.3039793463040000 S
atom_frac 0.0000000000000000 0.5000000000000000 0.3039793463040000 S
atom_frac 0.5000000000000000 0.0000000000000000 0.5000000000000000 S
atom_frac 0.0000000000000000 0.5000000000000000 0.5000000000000000 S
atom_frac 0.2030046122970000 0.7969298878720001 0.4045368642300001 S
atom_frac 0.7969953877030002 0.2030701121280000 0.4045368642300001 S
atom_frac 0.2969953877030000 0.7030701121280000 0.5954631357700000 S
atom_frac 0.7030046122970000 0.2969298878720000 0.5954631357700000 S
atom_frac 0.2969953877030000 0.2969298878720000 0.4045368642300001 S
atom_frac 0.7030046122970000 0.7030701121280000 0.4045368642300001 S
atom_frac 0.2030046122970000 0.2030701121280000 0.5954631357700000 S
atom_frac 0.7969953877030002 0.7969298878720001 0.5954631357700000 S
atom_frac 0.0000000000000000 0.0000000000000000 0.6855937746770000 Ba
atom_frac 0.5000000000000000 0.5000000000000000 0.6855937746770000 Ba
atom_frac 0.5000000000000000 0.0000000000000000 0.6960206536960000 S
atom_frac 0.0000000000000000 0.5000000000000000 0.6960206536960000 S
atom_frac 0.5000000000000000 0.0000000000000000 0.8144070121730000 Ba
atom_frac 0.0000000000000000 0.5000000000000000 0.8144070121730000 Ba
atom_frac 0.5000000000000000 0.0000000000000000 0.0000000000000000 Ba
atom_frac 0.0000000000000000 0.5000000000000000 0.0000000000000000 Ba
atom_frac 0.0000000000000000 0.0000000000000000 0.9013882982890001 Zr
atom_frac 0.5000000000000000 0.5000000000000000 0.9013882982890001 Zr
atom_frac 0.0000000000000000 0.0000000000000000 0.0986117017110000 Zr
atom_frac 0.5000000000000000 0.5000000000000000 0.0986117017110000 Zr
atom_frac 0.0000000000000000 0.0000000000000000 0.8039802443980000 S
atom_frac 0.5000000000000000 0.5000000000000000 0.8039802443980000 S
atom_frac 0.0000000000000000 0.0000000000000000 0.0000000000000000 S
atom_frac 0.5000000000000000 0.5000000000000000 0.0000000000000000 S
atom_frac 0.7030078531470000 0.7969264722830000 0.9045374026420000 S
atom_frac 0.2969921468530000 0.2030735277170000 0.9045374026420000 S
atom_frac 0.7969921468530000 0.7030735277170000 0.0954625973580000 S
atom_frac 0.2030078531470000 0.2969264722830000 0.0954625973580000 S
atom_frac 0.7969921468530000 0.2969264722830000 0.9045374026420000 S
atom_frac 0.2030078531470000 0.7030735277170000 0.9045374026420000 S
atom_frac 0.7030078531470000 0.2030735277170000 0.0954625973580000 S
atom_frac 0.2969921468530000 0.7969264722830000 0.0954625973580000 S
atom_frac 0.5000000000000000 0.0000000000000000 0.1855929878270000 Ba
atom_frac 0.0000000000000000 0.5000000000000000 0.1855929878270000 Ba
atom_frac 0.0000000000000000 0.0000000000000000 0.1960197556020000 S
atom_frac 0.5000000000000000 0.5000000000000000 0.1960197556020000 S
