#=======================================================
# FHI-aims file: /mnt/lustre/a2fs-work2/work/e05/e05/prakaya/chalcogenide_perovskites/redo/ternary/tilted_perovskites/RP_phase_tilt_n_3_66/relaxation/geometry.in.next_step
# Created using the Atomic Simulation Environment (ASE)
# Mon Mar 25 07:28:54 2024

# Additional information:
#  Relaxed with BFGS, fmax=1.000 meV/AA
#  nsteps = 6
#  residual force  = 0.311825 meV/AA
#  residual stress = 0.741319 meV/AA
#=======================================================
lattice_vector 3.5675656116710002 -17.5566316311149997 0.0000000000000000 
lattice_vector 3.5675656116710002 17.5566316311149997 0.0000000000000000 
lattice_vector 0.0000000000000000 0.0000000000000000 6.9621419272149998 
atom_frac 0.8218062254200000 0.7214968961240001 0.0000000000000000 Ba
atom_frac 0.2785031038760000 0.1781937745800000 0.4999999999999999 Ba
atom_frac 0.9321675333470002 0.5693891919210001 0.0000000000000000 Ba
atom_frac 0.4306108080790000 0.0678324666530000 0.4999999999999999 Ba
atom_frac 0.3602322855190000 0.1445065910830000 0.0000000000000000 Zr
atom_frac 0.8554934089169999 0.6397677144810000 0.4999999999999999 Zr
atom_frac 0.5000000000000000 0.0000000000000000 0.0000000000000000 Zr
atom_frac -0.0000000000000000 0.5000000000000000 0.4999999999999999 Zr
atom_frac 0.2483684251860000 0.1736985302750000 0.0000000000000000 S
atom_frac 0.8263014697249998 0.7516315748139999 0.4999999999999999 S
atom_frac 0.4922827716420000 0.1327128938170000 0.0000000000000000 S
atom_frac 0.8672871061830000 0.5077172283580000 0.4999999999999999 S
atom_frac 0.6033778598989999 0.3966221401010000 0.2500000000000000 S
atom_frac 0.1182125009660000 0.8817874990340000 0.7499999999999999 S
atom_frac 0.7597888185040000 0.2402111814960000 0.2500000000000000 S
atom_frac 0.2402111814959998 0.7597888185039999 0.7499999999999999 S
atom_frac 0.6033778598989999 0.3966221401010000 0.7499999999999999 S
atom_frac 0.1182125009660000 0.8817874990340000 0.2500000000000000 S
atom_frac 0.7597888185040000 0.2402111814960000 0.7499999999999999 S
atom_frac 0.2402111814959998 0.7597888185039999 0.2500000000000000 S
atom_frac 0.0678324666529999 0.4306108080789999 0.0000000000000000 Ba
atom_frac 0.5693891919210000 0.9321675333470000 0.4999999999999999 Ba
atom_frac 0.1781937745800000 0.2785031038760000 0.0000000000000000 Ba
atom_frac 0.7214968961239999 0.8218062254200000 0.4999999999999999 Ba
atom_frac 0.6397677144809999 0.8554934089170000 0.0000000000000000 Zr
atom_frac 0.1445065910830000 0.3602322855190000 0.4999999999999999 Zr
atom_frac 0.5077172283579999 0.8672871061830000 0.0000000000000000 S
atom_frac 0.1327128938170000 0.4922827716420000 0.4999999999999999 S
atom_frac 0.7516315748139999 0.8263014697250000 0.0000000000000000 S
atom_frac 0.1736985302750000 0.2483684251860000 0.4999999999999999 S
atom_frac 0.8817874990340000 0.1182125009660000 0.2500000000000000 S
atom_frac 0.3966221401010001 0.6033778598989999 0.7499999999999999 S
atom_frac 0.8817874990340000 0.1182125009660000 0.7499999999999999 S
atom_frac 0.3966221401010001 0.6033778598989999 0.2500000000000000 S
