#=======================================================
# FHI-aims file: /mnt/lustre/a2fs-work2/work/e05/e05/prakaya/chalcogenide_perovskites/redo/ternary/tilted_perovskites/RP_phase_tilt_n_2_127/relaxation/geometry.in.next_step
# Created using the Atomic Simulation Environment (ASE)
# Mon Mar 25 09:37:41 2024

# Additional information:
#  Relaxed with BFGS, fmax=1.000 meV/AA
#  nsteps = 4
#  residual force  = 0.369667 meV/AA
#  residual stress = 0.445278 meV/AA
#=======================================================
lattice_vector 7.0146321103720002 -0.0000000000000000 -0.0000000000000000 
lattice_vector -0.0000000000000000 7.0146321103720002 -0.0000000000000000 
lattice_vector 0.0000000000000000 -0.0000000000000000 25.4913500005949984 
atom_frac 0.5000000000000000 0.0000000000000000 0.3182045614130000 Ba
atom_frac 0.0000000000000000 0.5000000000000000 0.3182045614130000 Ba
atom_frac 0.5000000000000000 0.0000000000000000 0.5000000000000000 Ba
atom_frac 0.0000000000000000 0.5000000000000000 0.5000000000000000 Ba
atom_frac 0.5000000000000000 0.5000000000000000 0.3998020633010000 Zr
atom_frac 0.0000000000000000 0.0000000000000000 0.3998020633010000 Zr
atom_frac 0.5000000000000000 0.5000000000000000 0.6001979366990000 Zr
atom_frac 0.0000000000000000 0.0000000000000000 0.6001979366990000 Zr
atom_frac 0.5000000000000000 0.5000000000000000 0.3013683648870000 S
atom_frac 0.0000000000000000 0.0000000000000000 0.3013683648870000 S
atom_frac 0.5000000000000000 0.5000000000000000 0.5000000000000000 S
atom_frac 0.0000000000000000 0.0000000000000000 0.5000000000000000 S
atom_frac 0.7677695498770000 0.2677695498770000 0.4040429994640001 S
atom_frac 0.2322304501230000 0.7322304501230000 0.4040429994640001 S
atom_frac 0.7677695498770000 0.2677695498770000 0.5959570005360000 S
atom_frac 0.2322304501230000 0.7322304501230000 0.5959570005360000 S
atom_frac 0.2677695498770000 0.2322304501230000 0.4040429994640001 S
atom_frac 0.7322304501230000 0.7677695498770000 0.4040429994640001 S
atom_frac 0.2677695498770000 0.2322304501230000 0.5959570005360000 S
atom_frac 0.7322304501230000 0.7677695498770000 0.5959570005360000 S
atom_frac 0.5000000000000000 0.0000000000000000 0.6817954385870000 Ba
atom_frac 0.0000000000000000 0.5000000000000000 0.6817954385870000 Ba
atom_frac 0.5000000000000000 0.5000000000000000 0.6986316351130000 S
atom_frac 0.0000000000000000 0.0000000000000000 0.6986316351130000 S
atom_frac 0.5000000000000000 0.5000000000000000 0.8190930864260000 Ba
atom_frac 0.0000000000000000 0.0000000000000000 0.8190930864260000 Ba
atom_frac 0.5000000000000000 0.5000000000000000 0.0000000000000000 Ba
atom_frac 0.0000000000000000 0.0000000000000000 0.0000000000000000 Ba
atom_frac 0.5000000000000000 0.0000000000000000 0.8999020369770000 Zr
atom_frac 0.0000000000000000 0.5000000000000000 0.8999020369770000 Zr
atom_frac 0.5000000000000000 0.0000000000000000 0.1000979630230000 Zr
atom_frac 0.0000000000000000 0.5000000000000000 0.1000979630230000 Zr
atom_frac 0.5000000000000000 0.0000000000000000 0.8017061146510001 S
atom_frac 0.0000000000000000 0.5000000000000000 0.8017061146510001 S
atom_frac 0.5000000000000000 0.0000000000000000 0.0000000000000000 S
atom_frac 0.0000000000000000 0.5000000000000000 0.0000000000000000 S
atom_frac 0.7500183169710000 0.7499816830290001 0.9040769078830000 S
atom_frac 0.2499816830290000 0.2500183169710000 0.9040769078830000 S
atom_frac 0.7500183169710000 0.7499816830290001 0.0959230921170000 S
atom_frac 0.2499816830290000 0.2500183169710000 0.0959230921170000 S
atom_frac 0.2500183169710000 0.7500183169710000 0.9040769078830000 S
atom_frac 0.7499816830290001 0.2499816830290000 0.9040769078830000 S
atom_frac 0.2500183169710000 0.7500183169710000 0.0959230921170000 S
atom_frac 0.7499816830290001 0.2499816830290000 0.0959230921170000 S
atom_frac 0.5000000000000000 0.5000000000000000 0.1809069135740000 Ba
atom_frac 0.0000000000000000 0.0000000000000000 0.1809069135740000 Ba
atom_frac 0.5000000000000000 0.0000000000000000 0.1982938853490000 S
atom_frac 0.0000000000000000 0.5000000000000000 0.1982938853490000 S
