#=======================================================
# FHI-aims file: /mnt/lustre/a2fs-work2/work/e05/e05/prakaya/chalcogenide_perovskites/redo/ternary/tilted_perovskites/RP_phase_tilt_138/relaxation/geometry.in.next_step
# Created using the Atomic Simulation Environment (ASE)
# Sun Mar 24 22:46:15 2024

# Additional information:
#  Relaxed with BFGS, fmax=1.000 meV/AA
#  nsteps = 4
#  residual force  = 0.048775 meV/AA
#  residual stress = 0.106825 meV/AA
#=======================================================
lattice_vector 7.0144367476039999 -0.0000000000000000 0.0000000000000000 
lattice_vector 0.0000000000000000 7.0144367476039999 -0.0000000000000000 
lattice_vector -0.0000000000000000 0.0000000000000000 15.5081365822970003 
atom_frac 0.2381585427970000 0.7381585427970000 0.6087573455950002 Ba
atom_frac 0.7618414572030000 0.2618414572030000 0.6087573455950002 Ba
atom_frac 0.2618414572030000 0.7618414572030000 0.8912426544050001 Ba
atom_frac 0.7381585427970000 0.2381585427970000 0.8912426544050001 Ba
atom_frac 0.2500000000000000 0.2500000000000000 0.7500000000000001 Zr
atom_frac 0.7499999999999999 0.7499999999999999 0.7500000000000001 Zr
atom_frac 0.2236980199480000 0.2763019800520000 0.5860560529200000 S
atom_frac 0.7763019800520000 0.7236980199480000 0.5860560529200000 S
atom_frac 0.2763019800520000 0.2236980199480000 0.9139439470800000 S
atom_frac 0.7236980199480000 0.7763019800520000 0.9139439470800000 S
atom_frac 0.5000000000000000 0.0000000000000000 0.7337300521740001 S
atom_frac 0.0000000000000000 0.5000000000000000 0.7662699478260001 S
atom_frac 0.0000000000000000 0.0000000000000000 0.7500000000000001 S
atom_frac 0.5000000000000000 0.5000000000000000 0.7500000000000001 S
atom_frac 0.2381585427970000 0.2618414572030000 0.1087573455950000 Ba
atom_frac 0.7618414572030000 0.7381585427970000 0.1087573455950000 Ba
atom_frac 0.2618414572030000 0.2381585427970000 0.3912426544050001 Ba
atom_frac 0.7381585427970000 0.7618414572030000 0.3912426544050001 Ba
atom_frac 0.2500000000000000 0.7499999999999999 0.2500000000000000 Zr
atom_frac 0.7499999999999999 0.2500000000000000 0.2500000000000000 Zr
atom_frac 0.2236980199480000 0.7236980199480000 0.0860560529200000 S
atom_frac 0.7763019800520000 0.2763019800520000 0.0860560529200000 S
atom_frac 0.2763019800520000 0.7763019800520000 0.4139439470800000 S
atom_frac 0.7236980199480000 0.2236980199480000 0.4139439470800000 S
atom_frac 0.5000000000000000 0.5000000000000000 0.2500000000000000 S
atom_frac 0.0000000000000000 0.0000000000000000 0.2500000000000000 S
atom_frac 0.0000000000000000 0.5000000000000000 0.2662699478260001 S
atom_frac 0.5000000000000000 0.0000000000000000 0.2337300521740000 S
