#=======================================================
# FHI-aims file: /mnt/lustre/a2fs-work2/work/e05/e05/prakaya/chalcogenide_perovskites/redo/ternary/tilted_perovskites/RP_phase_tilt_n_2_125/relaxation/geometry.in.next_step
# Created using the Atomic Simulation Environment (ASE)
# Mon Mar 25 10:01:40 2024

# Additional information:
#  Relaxed with BFGS, fmax=1.000 meV/AA
#  nsteps = 3
#  residual force  = 0.095043 meV/AA
#  residual stress = 0.991103 meV/AA
#=======================================================
lattice_vector 7.0004036965600003 0.0000000000000000 -0.0000000000000000 
lattice_vector -0.0000000000000000 7.0004036965600003 0.0000000000000000 
lattice_vector 0.0000000000000000 0.0000000000000000 25.6003277476590014 
atom_frac 0.0000000000000000 0.5000000000000000 0.3166930449310000 Ba
atom_frac 0.5000000000000000 0.0000000000000000 0.3166930449310000 Ba
atom_frac 0.0000000000000000 0.5000000000000000 0.5000000000000000 Ba
atom_frac 0.5000000000000000 0.0000000000000000 0.5000000000000000 Ba
atom_frac 0.0000000000000000 0.0000000000000000 0.4001116218150000 Zr
atom_frac 0.5000000000000000 0.5000000000000000 0.4001116218150000 Zr
atom_frac 0.0000000000000000 0.0000000000000000 0.5998883781850001 Zr
atom_frac 0.5000000000000000 0.5000000000000000 0.5998883781850001 Zr
atom_frac 0.0000000000000000 0.0000000000000000 0.3016122643320001 S
atom_frac 0.5000000000000000 0.5000000000000000 0.3016122643320001 S
atom_frac 0.0000000000000000 0.0000000000000000 0.5000000000000000 S
atom_frac 0.5000000000000000 0.5000000000000000 0.5000000000000000 S
atom_frac 0.2190937691320000 0.7190937691320000 0.4042307749140001 S
atom_frac 0.7809062308680000 0.2809062308680000 0.4042307749140001 S
atom_frac 0.2809062308680000 0.7809062308680000 0.5957692250860001 S
atom_frac 0.7190937691320000 0.2190937691320000 0.5957692250860001 S
atom_frac 0.7190937691320000 0.7809062308680000 0.4042307749140001 S
atom_frac 0.2809062308680000 0.2190937691320000 0.4042307749140001 S
atom_frac 0.7809062308680000 0.7190937691320000 0.5957692250860001 S
atom_frac 0.2190937691320000 0.2809062308680000 0.5957692250860001 S
atom_frac 0.0000000000000000 0.5000000000000000 0.6833069550690001 Ba
atom_frac 0.5000000000000000 0.0000000000000000 0.6833069550690001 Ba
atom_frac 0.0000000000000000 0.0000000000000000 0.6983877356680001 S
atom_frac 0.5000000000000000 0.5000000000000000 0.6983877356680001 S
atom_frac 0.0000000000000000 0.0000000000000000 0.8190465550040000 Ba
atom_frac 0.5000000000000000 0.5000000000000000 0.8190465550040000 Ba
atom_frac 0.0000000000000000 0.0000000000000000 0.0000000000000000 Ba
atom_frac 0.5000000000000000 0.5000000000000000 0.0000000000000000 Ba
atom_frac 0.0000000000000000 0.5000000000000000 0.9002746066420000 Zr
atom_frac 0.5000000000000000 0.0000000000000000 0.9002746066420000 Zr
atom_frac 0.0000000000000000 0.5000000000000000 0.0997253933580000 Zr
atom_frac 0.5000000000000000 0.0000000000000000 0.0997253933580000 Zr
atom_frac 0.0000000000000000 0.5000000000000000 0.8024407510800001 S
atom_frac 0.5000000000000000 0.0000000000000000 0.8024407510800001 S
atom_frac 0.0000000000000000 0.5000000000000000 0.0000000000000000 S
atom_frac 0.5000000000000000 0.0000000000000000 0.0000000000000000 S
atom_frac 0.2500398856940000 0.2499601143060000 0.9042515731110001 S
atom_frac 0.7499601143060001 0.7500398856940000 0.9042515731110001 S
atom_frac 0.2499601143060000 0.2500398856940000 0.0957484268890000 S
atom_frac 0.7500398856940000 0.7499601143060001 0.0957484268890000 S
atom_frac 0.7500398856940000 0.2500398856940000 0.9042515731110001 S
atom_frac 0.2499601143060000 0.7499601143060001 0.9042515731110001 S
atom_frac 0.7499601143060001 0.2499601143060000 0.0957484268890000 S
atom_frac 0.2500398856940000 0.7500398856940000 0.0957484268890000 S
atom_frac 0.0000000000000000 0.0000000000000000 0.1809534449960000 Ba
atom_frac 0.5000000000000000 0.5000000000000000 0.1809534449960000 Ba
atom_frac 0.0000000000000000 0.5000000000000000 0.1975592489200000 S
atom_frac 0.5000000000000000 0.0000000000000000 0.1975592489200000 S
