#=======================================================
# FHI-aims file: /mnt/lustre/a2fs-work2/work/e05/e05/prakaya/chalcogenide_perovskites/redo/ternary/tilted_perovskites/RP_phase_tilt_n_2_55/relaxation/geometry.in.next_step
# Created using the Atomic Simulation Environment (ASE)
# Mon Mar 25 00:30:24 2024

# Additional information:
#  Relaxed with BFGS, fmax=1.000 meV/AA
#  nsteps = 9
#  residual force  = 0.073880 meV/AA
#  residual stress = 0.213081 meV/AA
#=======================================================
lattice_vector 6.9406126992210000 -0.0000000000000000 0.0000000000000000 
lattice_vector -0.0000000000000000 6.9413282975959998 0.0000000000000000 
lattice_vector 0.0000000000000000 0.0000000000000000 26.0168864110720008 
atom_frac 0.4999999999999999 0.5000000000000000 0.3151215503150000 Ba
atom_frac 0.0000000000000000 0.0000000000000000 0.3151215503150000 Ba
atom_frac 0.4999999999999999 0.5000000000000000 0.5000000000000000 Ba
atom_frac 0.0000000000000000 0.0000000000000000 0.5000000000000000 Ba
atom_frac 0.0000000000000000 0.5000000000000000 0.4009745089230000 Zr
atom_frac 0.4999999999999999 0.0000000000000000 0.4009745089230000 Zr
atom_frac 0.0000000000000000 0.5000000000000000 0.5990254910770001 Zr
atom_frac 0.4999999999999999 0.0000000000000000 0.5990254910770001 Zr
atom_frac 0.0000000000000000 0.5000000000000000 0.3035104287620000 S
atom_frac 0.4999999999999999 0.0000000000000000 0.3035104287620000 S
atom_frac 0.0000000000000000 0.5000000000000000 0.5000000000000000 S
atom_frac 0.4999999999999999 0.0000000000000000 0.5000000000000000 S
atom_frac 0.7915549482599999 0.2083871655280000 0.4043513657100000 S
atom_frac 0.2084450517400000 0.7916128344720000 0.4043513657100000 S
atom_frac 0.7915549482599999 0.2083871655280000 0.5956486342900001 S
atom_frac 0.2084450517400000 0.7916128344720000 0.5956486342900001 S
atom_frac 0.7084450517400001 0.7083871655280000 0.4043513657100000 S
atom_frac 0.2915549482600000 0.2916128344720000 0.4043513657100000 S
atom_frac 0.7084450517400001 0.7083871655280000 0.5956486342900001 S
atom_frac 0.2915549482600000 0.2916128344720000 0.5956486342900001 S
atom_frac 0.4999999999999999 0.5000000000000000 0.6848784496850001 Ba
atom_frac 0.0000000000000000 0.0000000000000000 0.6848784496850001 Ba
atom_frac 0.0000000000000000 0.5000000000000000 0.6964895712380000 S
atom_frac 0.4999999999999999 0.0000000000000000 0.6964895712380000 S
atom_frac 0.0000000000000000 0.5000000000000000 0.8151217320820001 Ba
atom_frac 0.4999999999999999 0.0000000000000000 0.8151217320820001 Ba
atom_frac 0.0000000000000000 0.5000000000000000 0.0000000000000000 Ba
atom_frac 0.4999999999999999 0.0000000000000000 0.0000000000000000 Ba
atom_frac 0.4999999999999999 0.5000000000000000 0.9009744065070001 Zr
atom_frac 0.0000000000000000 0.0000000000000000 0.9009744065070001 Zr
atom_frac 0.4999999999999999 0.5000000000000000 0.0990255934930000 Zr
atom_frac 0.0000000000000000 0.0000000000000000 0.0990255934930000 Zr
atom_frac 0.4999999999999999 0.5000000000000000 0.8035107514390000 S
atom_frac 0.0000000000000000 0.0000000000000000 0.8035107514390000 S
atom_frac 0.4999999999999999 0.5000000000000000 0.0000000000000000 S
atom_frac 0.0000000000000000 0.0000000000000000 0.0000000000000000 S
atom_frac 0.2915526043730000 0.2083898723530000 0.9043514788770000 S
atom_frac 0.7084473956270000 0.7916101276470000 0.9043514788770000 S
atom_frac 0.2915526043730000 0.2083898723530000 0.0956485211230000 S
atom_frac 0.7084473956270000 0.7916101276470000 0.0956485211230000 S
atom_frac 0.2084473956270000 0.7083898723530000 0.9043514788770000 S
atom_frac 0.7915526043730000 0.2916101276470000 0.9043514788770000 S
atom_frac 0.2084473956270000 0.7083898723530000 0.0956485211230000 S
atom_frac 0.7915526043730000 0.2916101276470000 0.0956485211230000 S
atom_frac 0.0000000000000000 0.5000000000000000 0.1848782679180000 Ba
atom_frac 0.4999999999999999 0.0000000000000000 0.1848782679180000 Ba
atom_frac 0.4999999999999999 0.5000000000000000 0.1964892485610000 S
atom_frac 0.0000000000000000 0.0000000000000000 0.1964892485610000 S
