#=======================================================
# FHI-aims file: /mnt/lustre/a2fs-work2/work/e05/e05/prakaya/chalcogenide_perovskites/redo/ternary/tilted_perovskites/RP_phase_tilt_n_2_64/relaxation/geometry.in.next_step
# Created using the Atomic Simulation Environment (ASE)
# Sun Mar 24 23:26:28 2024

# Additional information:
#  Relaxed with BFGS, fmax=1.000 meV/AA
#  nsteps = 6
#  residual force  = 0.188262 meV/AA
#  residual stress = 0.846054 meV/AA
#=======================================================
lattice_vector 13.0084972727949992 -3.4703004569100000 0.0000000000000000 
lattice_vector 13.0084972727949992 3.4703004569100000 0.0000000000000000 
lattice_vector 0.0000000000000000 0.0000000000000000 6.9412866765169996 
atom_frac 0.6848793806939999 0.6848793806940000 0.0000000000000000 Ba
atom_frac 0.1848793806940000 0.1848793806940000 0.5000000000000000 Ba
atom_frac 0.4999999999999999 0.5000000000000000 0.0000000000000000 Ba
atom_frac 0.0000000000000000 0.0000000000000000 0.5000000000000000 Ba
atom_frac 0.5990250806269999 0.5990250806270000 0.5000000000000000 Zr
atom_frac 0.0990250806270000 0.0990250806270000 0.0000000000000000 Zr
atom_frac 0.4009749193730000 0.4009749193730001 0.5000000000000000 Zr
atom_frac 0.9009749193729999 0.9009749193730000 0.0000000000000000 Zr
atom_frac 0.6964888604190000 0.6964888604190002 0.5000000000000000 S
atom_frac 0.1964888604190000 0.1964888604190000 0.0000000000000000 S
atom_frac 0.4999999999999999 0.5000000000000000 0.5000000000000000 S
atom_frac 0.0000000000000000 0.0000000000000000 0.0000000000000000 S
atom_frac 0.3040899969569998 0.8872069904890001 0.7083854459830001 S
atom_frac 0.8872069904890000 0.3040899969569999 0.2916145540170000 S
atom_frac 0.1127930095109998 0.6959100030430001 0.7083854459830001 S
atom_frac 0.6959100030430000 0.1127930095110000 0.2916145540170000 S
atom_frac 0.8040899969570000 0.3872069904889999 0.7916145540170001 S
atom_frac 0.3872069904889999 0.8040899969570000 0.2083854459830000 S
atom_frac 0.6127930095110000 0.1959100030430000 0.7916145540170001 S
atom_frac 0.1959100030429999 0.6127930095110001 0.2083854459830000 S
atom_frac 0.3151206193059999 0.3151206193060000 0.0000000000000000 Ba
atom_frac 0.8151206193059999 0.8151206193060000 0.5000000000000000 Ba
atom_frac 0.3035111395810000 0.3035111395810000 0.5000000000000000 S
atom_frac 0.8035111395809998 0.8035111395810000 0.0000000000000000 S
