#=======================================================
# FHI-aims file: /mnt/lustre/a2fs-work2/work/e05/e05/prakaya/chalcogenide_perovskites/redo/ternary/tilted_perovskites/RP_phase_tilt_n_2_132/relaxation/geometry.in.next_step
# Created using the Atomic Simulation Environment (ASE)
# Mon Mar 25 00:11:47 2024

# Additional information:
#  Relaxed with BFGS, fmax=1.000 meV/AA
#  nsteps = 13
#  residual force  = 0.046059 meV/AA
#  residual stress = 0.401948 meV/AA
#=======================================================
lattice_vector 7.0528788048289996 -0.0000000000000000 -0.0000000000000000 
lattice_vector -0.0000000000000000 7.0528788048289996 -0.0000000000000000 
lattice_vector 0.0000000000000000 -0.0000000000000000 25.2514720408929989 
atom_frac 0.2334255975850000 0.2334255975850000 0.3195075650880000 Ba
atom_frac 0.7665744024150000 0.7665744024150000 0.3195075650880000 Ba
atom_frac 0.2550049296300000 0.2550049296300000 0.5000000000000000 Ba
atom_frac 0.7449950703700000 0.7449950703700000 0.5000000000000000 Ba
atom_frac 0.2516539279630000 0.7483460720370001 0.4003803172970000 Zr
atom_frac 0.7483460720370001 0.2516539279630000 0.4003803172970000 Zr
atom_frac 0.2516539279630000 0.7483460720370001 0.5996196827030000 Zr
atom_frac 0.7483460720370001 0.2516539279630000 0.5996196827030000 Zr
atom_frac 0.2217374650190000 0.7782625349810000 0.3020307896030000 S
atom_frac 0.7782625349810000 0.2217374650190000 0.3020307896030000 S
atom_frac 0.2921897518860000 0.7078102481140000 0.5000000000000000 S
atom_frac 0.7078102481140000 0.2921897518860000 0.5000000000000000 S
atom_frac 0.5000000000000000 0.5000000000000000 0.3892888574870000 S
atom_frac 0.0000000000000000 0.0000000000000000 0.4170446974770000 S
atom_frac 0.5000000000000000 0.5000000000000000 0.6107111425130000 S
atom_frac 0.0000000000000000 0.0000000000000000 0.5829553025230000 S
atom_frac 0.0000000000000000 0.5000000000000000 0.4048864761050000 S
atom_frac 0.5000000000000000 0.0000000000000000 0.4048864761050000 S
atom_frac 0.0000000000000000 0.5000000000000000 0.5951135238950001 S
atom_frac 0.5000000000000000 0.0000000000000000 0.5951135238950001 S
atom_frac 0.2334255975850000 0.2334255975850000 0.6804924349120000 Ba
atom_frac 0.7665744024150000 0.7665744024150000 0.6804924349120000 Ba
atom_frac 0.2217374650190000 0.7782625349810000 0.6979692103970000 S
atom_frac 0.7782625349810000 0.2217374650190000 0.6979692103970000 S
atom_frac 0.2334255975850000 0.7665744024150000 0.8195075650880000 Ba
atom_frac 0.7665744024150000 0.2334255975850000 0.8195075650880000 Ba
atom_frac 0.2550049296300000 0.7449950703700000 0.0000000000000000 Ba
atom_frac 0.7449950703700000 0.2550049296300000 0.0000000000000000 Ba
atom_frac 0.2516539279630000 0.2516539279630000 0.9003803172970000 Zr
atom_frac 0.7483460720370001 0.7483460720370001 0.9003803172970000 Zr
atom_frac 0.2516539279630000 0.2516539279630000 0.0996196827030000 Zr
atom_frac 0.7483460720370001 0.7483460720370001 0.0996196827030000 Zr
atom_frac 0.2217374650190000 0.2217374650190000 0.8020307896030000 S
atom_frac 0.7782625349810000 0.7782625349810000 0.8020307896030000 S
atom_frac 0.2921897518860000 0.2921897518860000 0.0000000000000000 S
atom_frac 0.7078102481140000 0.7078102481140000 0.0000000000000000 S
atom_frac 0.5000000000000000 0.0000000000000000 0.9048864761049999 S
atom_frac 0.0000000000000000 0.5000000000000000 0.9048864761049999 S
atom_frac 0.5000000000000000 0.0000000000000000 0.0951135238950000 S
atom_frac 0.0000000000000000 0.5000000000000000 0.0951135238950000 S
atom_frac 0.0000000000000000 0.0000000000000000 0.9170446974769999 S
atom_frac 0.5000000000000000 0.5000000000000000 0.8892888574870000 S
atom_frac 0.0000000000000000 0.0000000000000000 0.0829553025230000 S
atom_frac 0.5000000000000000 0.5000000000000000 0.1107111425130000 S
atom_frac 0.2334255975850000 0.7665744024150000 0.1804924349120000 Ba
atom_frac 0.7665744024150000 0.2334255975850000 0.1804924349120000 Ba
atom_frac 0.2217374650190000 0.2217374650190000 0.1979692103970000 S
atom_frac 0.7782625349810000 0.7782625349810000 0.1979692103970000 S
