#=======================================================
# FHI-aims file: /mnt/lustre/a2fs-work2/work/e05/e05/prakaya/chalcogenide_perovskites/redo/ternary/tilted_perovskites/RP_phase_tilt_64/relaxation/geometry.in.next_step
# Created using the Atomic Simulation Environment (ASE)
# Sun Mar 24 21:37:01 2024

# Additional information:
#  Relaxed with BFGS, fmax=1.000 meV/AA
#  nsteps = 33
#  residual force  = 0.106673 meV/AA
#  residual stress = 0.221064 meV/AA
#=======================================================
lattice_vector 3.4599615404990001 -7.7565278068829997 0.0000000000000000 
lattice_vector 3.4599615404990001 7.7565278068829997 0.0000000000000000 
lattice_vector 0.0000000000000000 0.0000000000000000 7.1010240046549997 
atom_frac 0.8587032851109999 0.1412967148890001 -0.0163386461730000 Ba
atom_frac 0.3587032851110001 0.6412967148890000 0.5163386461730000 Ba
atom_frac 0.1412967148890001 0.8587032851110001 0.0163386461730000 Ba
atom_frac 0.6412967148890000 0.3587032851110000 0.4836613538270000 Ba
atom_frac -0.0000000000000000 0.0000000000000000 0.5000000000000000 Zr
atom_frac 0.5000000000000000 0.5000000000000000 0.0000000000000000 Zr
atom_frac 0.8360622659640000 0.1639377340360000 0.5360511957370000 S
atom_frac 0.3360622659640002 0.6639377340360001 0.9639488042630001 S
atom_frac 0.1639377340360000 0.8360622659640000 0.4639488042630000 S
atom_frac 0.6639377340360000 0.3360622659640000 0.0360511957370000 S
atom_frac 0.2386208597310000 0.2613791402690000 0.2500000000000000 S
atom_frac 0.7613791402690000 0.7386208597310000 0.7500000000000000 S
atom_frac 0.7386208597310001 0.7613791402690001 0.2500000000000000 S
atom_frac 0.2613791402689999 0.2386208597310000 0.7500000000000000 S
