#=======================================================
# FHI-aims file: /mnt/lustre/a2fs-work2/work/e05/e05/prakaya/chalcogenide_perovskites/redo/ternary/tilted_perovskites/RP_phase_tilt_n_2_68/relaxation/geometry.in.next_step
# Created using the Atomic Simulation Environment (ASE)
# Mon Mar 25 08:52:19 2024

# Additional information:
#  Relaxed with BFGS, fmax=1.000 meV/AA
#  nsteps = 6
#  residual force  = 0.289706 meV/AA
#  residual stress = 0.744616 meV/AA
#=======================================================
lattice_vector 3.4616868521559998 -13.0561076831210006 0.0000000000000000 
lattice_vector 3.4616868521559998 13.0561076831210006 0.0000000000000000 
lattice_vector 0.0000000000000000 0.0000000000000000 6.9223532591929997 
atom_frac 0.8144066763280001 0.1855933236719999 0.0000000000000000 Ba
atom_frac 0.3144066763279999 0.6855933236719999 0.5000000000000000 Ba
atom_frac -0.0000000000000000 0.0000000000000000 0.0000000000000000 Ba
atom_frac 0.5000000000000000 0.4999999999999999 0.5000000000000000 Ba
atom_frac 0.4013888326839999 0.5986111673159998 0.0000000000000000 Zr
atom_frac 0.9013888326840001 0.0986111673160000 0.5000000000000000 Zr
atom_frac 0.5986111673160001 0.4013888326839999 0.0000000000000000 Zr
atom_frac 0.0986111673159999 0.9013888326839999 0.5000000000000000 Zr
atom_frac 0.3039801030939999 0.6960198969059999 0.0000000000000000 S
atom_frac 0.8039801030940001 0.1960198969060000 0.5000000000000000 S
atom_frac 0.5000000000000000 0.4999999999999999 0.0000000000000000 S
atom_frac -0.0000000000000000 0.0000000000000000 0.5000000000000000 S
atom_frac 0.7015314099100000 0.8924573375130000 0.2030648276300000 S
atom_frac 0.1075426624870000 0.2984685900900000 0.7969351723700000 S
atom_frac 0.7984685900900002 0.6075426624870000 0.2969351723700000 S
atom_frac 0.3924573375130000 0.2015314099100000 0.7030648276300000 S
atom_frac 0.6075426624869998 0.7984685900899999 0.7030648276300000 S
atom_frac 0.2015314099100000 0.3924573375130000 0.2969351723700000 S
atom_frac 0.8924573375130000 0.7015314099100000 0.7969351723700000 S
atom_frac 0.2984685900900000 0.1075426624870000 0.2030648276300000 S
atom_frac 0.1855933236719999 0.8144066763279999 0.0000000000000000 Ba
atom_frac 0.6855933236720001 0.3144066763280000 0.5000000000000000 Ba
atom_frac 0.6960198969060001 0.3039801030939999 0.0000000000000000 S
atom_frac 0.1960198969059999 0.8039801030939999 0.5000000000000000 S
