#=======================================================
# FHI-aims file: /mnt/lustre/a2fs-work2/work/e05/e05/prakaya/chalcogenide_perovskites/redo/ternary/tilted_perovskites/RP_phase_tilt_n_2_136/relaxation/geometry.in.next_step
# Created using the Atomic Simulation Environment (ASE)
# Mon Mar 25 06:46:45 2024

# Additional information:
#  Relaxed with BFGS, fmax=1.000 meV/AA
#  nsteps = 5
#  residual force  = 0.825437 meV/AA
#  residual stress = 0.469793 meV/AA
#=======================================================
lattice_vector 7.0582820682219998 0.0000000000000000 0.0000000000000000 
lattice_vector 0.0000000000000000 7.0582820682219998 -0.0000000000000000 
lattice_vector -0.0000000000000000 -0.0000000000000000 25.1464900033360017 
atom_frac 0.2360725947080000 0.2360725947080000 0.3189487603030000 Ba
atom_frac 0.7639274052920001 0.7639274052920001 0.3189487603030000 Ba
atom_frac 0.2552949084440000 0.2552949084440000 0.5000000000000000 Ba
atom_frac 0.7447050915560000 0.7447050915560000 0.5000000000000000 Ba
atom_frac 0.2505676868610000 0.7494323131390002 0.4001466914020000 Zr
atom_frac 0.7494323131390002 0.2505676868610000 0.4001466914020000 Zr
atom_frac 0.2505676868610000 0.7494323131390002 0.5998533085980000 Zr
atom_frac 0.7494323131390002 0.2505676868610000 0.5998533085980000 Zr
atom_frac 0.2144519174460000 0.7855480825540001 0.3015823953080000 S
atom_frac 0.7855480825540001 0.2144519174460000 0.3015823953080000 S
atom_frac 0.2936768878800001 0.7063231121200001 0.5000000000000000 S
atom_frac 0.7063231121200001 0.2936768878800001 0.5000000000000000 S
atom_frac 0.5000000000000000 0.5000000000000000 0.3882677442070000 S
atom_frac 0.0000000000000000 0.0000000000000000 0.4183002493610000 S
atom_frac 0.5000000000000000 0.5000000000000000 0.6117322557929999 S
atom_frac 0.0000000000000000 0.0000000000000000 0.5816997506390000 S
atom_frac 0.0000000000000000 0.5000000000000000 0.4044514302160001 S
atom_frac 0.5000000000000000 0.0000000000000000 0.4044514302160001 S
atom_frac 0.0000000000000000 0.5000000000000000 0.5955485697839999 S
atom_frac 0.5000000000000000 0.0000000000000000 0.5955485697839999 S
atom_frac 0.2360725947080000 0.2360725947080000 0.6810512396970000 Ba
atom_frac 0.7639274052920001 0.7639274052920001 0.6810512396970000 Ba
atom_frac 0.2144519174460000 0.7855480825540001 0.6984176046920000 S
atom_frac 0.7855480825540001 0.2144519174460000 0.6984176046920000 S
atom_frac 0.2639274052920000 0.7360725947080001 0.8189487603030001 Ba
atom_frac 0.7360725947080001 0.2639274052920000 0.8189487603030001 Ba
atom_frac 0.2447050915560000 0.7552949084440000 0.0000000000000000 Ba
atom_frac 0.7552949084440000 0.2447050915560000 0.0000000000000000 Ba
atom_frac 0.2494323131390000 0.2494323131390000 0.9001466914020001 Zr
atom_frac 0.7505676868610001 0.7505676868610001 0.9001466914020001 Zr
atom_frac 0.2494323131390000 0.2494323131390000 0.0998533085980000 Zr
atom_frac 0.7505676868610001 0.7505676868610001 0.0998533085980000 Zr
atom_frac 0.2855480825540000 0.2855480825540000 0.8015823953080000 S
atom_frac 0.7144519174460001 0.7144519174460001 0.8015823953080000 S
atom_frac 0.2063231121200000 0.2063231121200000 0.0000000000000000 S
atom_frac 0.7936768878800001 0.7936768878800001 0.0000000000000000 S
atom_frac 0.5000000000000000 0.0000000000000000 0.9044514302160001 S
atom_frac 0.0000000000000000 0.5000000000000000 0.9044514302160001 S
atom_frac 0.5000000000000000 0.0000000000000000 0.0955485697840000 S
atom_frac 0.0000000000000000 0.5000000000000000 0.0955485697840000 S
atom_frac 0.0000000000000000 0.0000000000000000 0.8882677442070001 S
atom_frac 0.5000000000000000 0.5000000000000000 0.9183002493610000 S
atom_frac 0.0000000000000000 0.0000000000000000 0.1117322557930000 S
atom_frac 0.5000000000000000 0.5000000000000000 0.0816997506390000 S
atom_frac 0.2639274052920000 0.7360725947080001 0.1810512396970000 Ba
atom_frac 0.7360725947080001 0.2639274052920000 0.1810512396970000 Ba
atom_frac 0.2855480825540000 0.2855480825540000 0.1984176046920000 S
atom_frac 0.7144519174460001 0.7144519174460001 0.1984176046920000 S
