#=======================================================
# FHI-aims file: /mnt/lustre/a2fs-work2/work/e05/e05/prakaya/chalcogenide_perovskites/redo/ternary/tilted_perovskites/RP_phase_tilt_55/relaxation/geometry.in.next_step
# Created using the Atomic Simulation Environment (ASE)
# Sun Mar 24 23:27:53 2024

# Additional information:
#  Relaxed with BFGS, fmax=1.000 meV/AA
#  nsteps = 4
#  residual force  = 0.019170 meV/AA
#  residual stress = 0.098899 meV/AA
#=======================================================
lattice_vector 6.9794210712359996 -0.0000000000000000 0.0000000000000000 
lattice_vector 0.0000000000000000 6.9794281973030001 0.0000000000000000 
lattice_vector 0.0000000000000000 0.0000000000000000 15.6173742868319998 
atom_frac 0.4999999999999999 0.5000000000000000 0.3584669222690000 Ba
atom_frac 0.0000000000000000 0.0000000000000000 0.3584669222690000 Ba
atom_frac 0.4999999999999999 0.5000000000000000 0.6415330777310000 Ba
atom_frac 0.0000000000000000 0.0000000000000000 0.6415330777310000 Ba
atom_frac 0.0000000000000000 0.5000000000000000 0.5000000000000000 Zr
atom_frac 0.4999999999999999 0.0000000000000000 0.5000000000000000 Zr
atom_frac 0.0000000000000000 0.5000000000000000 0.3360565100420000 S
atom_frac 0.4999999999999999 0.0000000000000000 0.3360565100420000 S
atom_frac 0.0000000000000000 0.5000000000000000 0.6639434899580000 S
atom_frac 0.4999999999999999 0.0000000000000000 0.6639434899580000 S
atom_frac 0.7499998716339998 0.2500001125860000 0.5000000000000000 S
atom_frac 0.2500001283660000 0.7499998874140000 0.5000000000000000 S
atom_frac 0.7500001283659999 0.7500001125860000 0.5000000000000000 S
atom_frac 0.2499998716340000 0.2499998874140000 0.5000000000000000 S
atom_frac 0.0000000000000000 0.5000000000000000 0.8584668963740000 Ba
atom_frac 0.4999999999999999 0.0000000000000000 0.8584668963740000 Ba
atom_frac 0.0000000000000000 0.5000000000000000 0.1415331036260000 Ba
atom_frac 0.4999999999999999 0.0000000000000000 0.1415331036260000 Ba
atom_frac 0.4999999999999999 0.5000000000000000 0.0000000000000000 Zr
atom_frac 0.0000000000000000 0.0000000000000000 0.0000000000000000 Zr
atom_frac 0.4999999999999999 0.5000000000000000 0.8360565180120001 S
atom_frac 0.0000000000000000 0.0000000000000000 0.8360565180120001 S
atom_frac 0.4999999999999999 0.5000000000000000 0.1639434819880000 S
atom_frac 0.0000000000000000 0.0000000000000000 0.1639434819880000 S
atom_frac 0.2499995573920000 0.2500005039110000 0.0000000000000000 S
atom_frac 0.7500004426079999 0.7499994960890000 0.0000000000000000 S
atom_frac 0.2500004426080000 0.7500005039110000 0.0000000000000000 S
atom_frac 0.7499995573919999 0.2499994960890000 0.0000000000000000 S
