#=======================================================
# FHI-aims file: /mnt/lustre/a2fs-work2/work/e05/e05/prakaya/chalcogenide_perovskites/redo/ternary/tilted_perovskites/RP_phase_tilt_127/relaxation/geometry.in.next_step
# Created using the Atomic Simulation Environment (ASE)
# Sun Mar 24 22:51:26 2024

# Additional information:
#  Relaxed with BFGS, fmax=1.000 meV/AA
#  nsteps = 10
#  residual force  = 0.060518 meV/AA
#  residual stress = 0.399399 meV/AA
#=======================================================
lattice_vector 6.9794279363080003 0.0000000000000000 0.0000000000000000 
lattice_vector -0.0000000000000000 6.9794279363080003 -0.0000000000000000 
lattice_vector -0.0000000000000000 -0.0000000000000000 15.6173760225210003 
atom_frac 0.4999999999999999 0.0000000000000000 0.3584667693650000 Ba
atom_frac 0.0000000000000000 0.4999999999999999 0.3584667693650000 Ba
atom_frac 0.4999999999999999 0.0000000000000000 0.6415332306350000 Ba
atom_frac 0.0000000000000000 0.4999999999999999 0.6415332306350000 Ba
atom_frac 0.4999999999999999 0.4999999999999999 0.5000000000000000 Zr
atom_frac 0.0000000000000000 0.0000000000000000 0.5000000000000000 Zr
atom_frac 0.4999999999999999 0.4999999999999999 0.3360564820930000 S
atom_frac 0.0000000000000000 0.0000000000000000 0.3360564820930000 S
atom_frac 0.4999999999999999 0.4999999999999999 0.6639435179070000 S
atom_frac 0.0000000000000000 0.0000000000000000 0.6639435179070000 S
atom_frac 0.7499973537460000 0.2499973537460000 0.5000000000000000 S
atom_frac 0.2500026462540000 0.7500026462540000 0.5000000000000000 S
atom_frac 0.2499973537460000 0.2500026462540000 0.5000000000000000 S
atom_frac 0.7500026462540000 0.7499973537460000 0.5000000000000000 S
atom_frac 0.4999999999999999 0.4999999999999999 0.8584671437670000 Ba
atom_frac 0.0000000000000000 0.0000000000000000 0.8584671437670000 Ba
atom_frac 0.4999999999999999 0.4999999999999999 0.1415328562330000 Ba
atom_frac 0.0000000000000000 0.0000000000000000 0.1415328562330000 Ba
atom_frac 0.4999999999999999 0.0000000000000000 0.0000000000000000 Zr
atom_frac 0.0000000000000000 0.4999999999999999 0.0000000000000000 Zr
atom_frac 0.4999999999999999 0.0000000000000000 0.8360565358850000 S
atom_frac 0.0000000000000000 0.4999999999999999 0.8360565358850000 S
atom_frac 0.4999999999999999 0.0000000000000000 0.1639434641150000 S
atom_frac 0.0000000000000000 0.4999999999999999 0.1639434641150000 S
atom_frac 0.7499995593300000 0.7500004406699999 0.0000000000000000 S
atom_frac 0.2500004406700000 0.2499995593300000 0.0000000000000000 S
atom_frac 0.2499995593300000 0.7499995593300000 0.0000000000000000 S
atom_frac 0.7500004406699999 0.2500004406700000 0.0000000000000000 S
