#=======================================================
# FHI-aims file: /mnt/lustre/a2fs-work2/work/e05/e05/prakaya/chalcogenide_perovskites/redo/ternary/tilted_perovskites/RP_phase_tilt_n_3_55/relaxation/geometry.in.next_step
# Created using the Atomic Simulation Environment (ASE)
# Mon Mar 25 16:09:45 2024

# Additional information:
#  Relaxed with BFGS, fmax=1.000 meV/AA
#  nsteps = 3
#  residual force  = 0.567841 meV/AA
#  residual stress = 0.886402 meV/AA
#=======================================================
lattice_vector 6.9254090512530002 0.0000000000000000 0.0000000000000000 
lattice_vector -0.0000000000000000 6.9260765058620004 0.0000000000000000 
lattice_vector 0.0000000000000000 0.0000000000000000 36.2349610822220001 
atom_frac 0.4999999999999999 0.5000000000000000 0.2966572209280000 Ba
atom_frac 0.0000000000000000 0.0000000000000000 0.2966572209280000 Ba
atom_frac 0.4999999999999999 0.5000000000000000 0.4304967502320000 Ba
atom_frac 0.0000000000000000 0.0000000000000000 0.4304967502320000 Ba
atom_frac 0.0000000000000000 0.5000000000000000 0.3586851849570000 Zr
atom_frac 0.4999999999999999 0.0000000000000000 0.3586851849570000 Zr
atom_frac 0.0000000000000000 0.5000000000000000 0.5000000000000000 Zr
atom_frac 0.4999999999999999 0.0000000000000000 0.5000000000000000 Zr
atom_frac 0.0000000000000000 0.5000000000000000 0.2886956619870000 S
atom_frac 0.4999999999999999 0.0000000000000000 0.2886956619870000 S
atom_frac 0.0000000000000000 0.5000000000000000 0.4300032635700000 S
atom_frac 0.4999999999999999 0.0000000000000000 0.4300032635700000 S
atom_frac 0.7047015130510000 0.2953587139900000 0.3612774097070000 S
atom_frac 0.2952984869490000 0.7046412860100000 0.3612774097070000 S
atom_frac 0.8087331499399999 0.1912695206390000 0.5000000000000000 S
atom_frac 0.1912668500600000 0.8087304793609998 0.5000000000000000 S
atom_frac 0.7952984869490000 0.7953587139900000 0.3612774097070000 S
atom_frac 0.2047015130510000 0.2046412860100000 0.3612774097070000 S
atom_frac 0.6912668500600000 0.6912695206390000 0.5000000000000000 S
atom_frac 0.3087331499400000 0.3087304793610000 0.5000000000000000 S
atom_frac 0.4999999999999999 0.5000000000000000 0.5695032497679999 Ba
atom_frac 0.0000000000000000 0.0000000000000000 0.5695032497679999 Ba
atom_frac 0.4999999999999999 0.5000000000000000 0.7033427790720000 Ba
atom_frac 0.0000000000000000 0.0000000000000000 0.7033427790720000 Ba
atom_frac 0.0000000000000000 0.5000000000000000 0.6413148150429999 Zr
atom_frac 0.4999999999999999 0.0000000000000000 0.6413148150429999 Zr
atom_frac 0.0000000000000000 0.5000000000000000 0.5699967364299999 S
atom_frac 0.4999999999999999 0.0000000000000000 0.5699967364299999 S
atom_frac 0.0000000000000000 0.5000000000000000 0.7113043380129999 S
atom_frac 0.4999999999999999 0.0000000000000000 0.7113043380129999 S
atom_frac 0.7047015130510000 0.2953587139900000 0.6387225902930000 S
atom_frac 0.2952984869490000 0.7046412860100000 0.6387225902930000 S
atom_frac 0.7952984869490000 0.7953587139900000 0.6387225902930000 S
atom_frac 0.2047015130510000 0.2046412860100000 0.6387225902930000 S
atom_frac 0.0000000000000000 0.5000000000000000 0.7966527873390000 Ba
atom_frac 0.4999999999999999 0.0000000000000000 0.7966527873390000 Ba
atom_frac 0.0000000000000000 0.5000000000000000 0.9305058466790000 Ba
atom_frac 0.4999999999999999 0.0000000000000000 0.9305058466790000 Ba
atom_frac 0.4999999999999999 0.5000000000000000 0.8586848546849999 Zr
atom_frac 0.0000000000000000 0.0000000000000000 0.8586848546849999 Zr
atom_frac 0.4999999999999999 0.5000000000000000 0.0000000000000000 Zr
atom_frac 0.0000000000000000 0.0000000000000000 0.0000000000000000 Zr
atom_frac 0.4999999999999999 0.5000000000000000 0.7886930093140000 S
atom_frac 0.0000000000000000 0.0000000000000000 0.7886930093140000 S
atom_frac 0.4999999999999999 0.5000000000000000 0.9300044943560000 S
atom_frac 0.0000000000000000 0.0000000000000000 0.9300044943560000 S
atom_frac 0.2046650398610000 0.2953974272810000 0.8612800179390000 S
atom_frac 0.7953349601390000 0.7046025727190000 0.8612800179390000 S
atom_frac 0.3086953125050000 0.1913074997760000 0.0000000000000000 S
atom_frac 0.6913046874949998 0.8086925002240000 0.0000000000000000 S
atom_frac 0.2953349601390000 0.7953974272810000 0.8612800179390000 S
atom_frac 0.7046650398609999 0.2046025727190000 0.8612800179390000 S
atom_frac 0.1913046874950000 0.6913074997760000 0.0000000000000000 S
atom_frac 0.8086953125050000 0.3086925002240000 0.0000000000000000 S
atom_frac 0.0000000000000000 0.5000000000000000 0.0694941533210000 Ba
atom_frac 0.4999999999999999 0.0000000000000000 0.0694941533210000 Ba
atom_frac 0.0000000000000000 0.5000000000000000 0.2033472126610000 Ba
atom_frac 0.4999999999999999 0.0000000000000000 0.2033472126610000 Ba
atom_frac 0.4999999999999999 0.5000000000000000 0.1413151453150000 Zr
atom_frac 0.0000000000000000 0.0000000000000000 0.1413151453150000 Zr
atom_frac 0.4999999999999999 0.5000000000000000 0.0699955056440000 S
atom_frac 0.0000000000000000 0.0000000000000000 0.0699955056440000 S
atom_frac 0.4999999999999999 0.5000000000000000 0.2113069906860000 S
atom_frac 0.0000000000000000 0.0000000000000000 0.2113069906860000 S
atom_frac 0.2046650398610000 0.2953974272810000 0.1387199820610000 S
atom_frac 0.7953349601390000 0.7046025727190000 0.1387199820610000 S
atom_frac 0.2953349601390000 0.7953974272810000 0.1387199820610000 S
atom_frac 0.7046650398609999 0.2046025727190000 0.1387199820610000 S
