#=======================================================
# FHI-aims file: /mnt/lustre/a2fs-work2/work/e05/e05/prakaya/chalcogenide_perovskites/redo/ternary/tilted_perovskites/RP_phase_tilt_n_3_138/relaxation/geometry.in.next_step
# Created using the Atomic Simulation Environment (ASE)
# Mon Mar 25 08:41:41 2024

# Additional information:
#  Relaxed with BFGS, fmax=1.000 meV/AA
#  nsteps = 2
#  residual force  = 0.301681 meV/AA
#  residual stress = 0.905730 meV/AA
#=======================================================
lattice_vector 7.0614034709920004 0.0000000000000000 -0.0000000000000000 
lattice_vector -0.0000000000000000 7.0614034709920004 0.0000000000000000 
lattice_vector -0.0000000000000000 0.0000000000000000 34.9311742564630023 
atom_frac 0.2356835468840000 0.7356835468840000 0.5499210128160000 Ba
atom_frac 0.7643164531160000 0.2643164531160000 0.5499210128160000 Ba
atom_frac 0.2531774364640000 0.7531774364640000 0.6815786623560000 Ba
atom_frac 0.7468225635360000 0.2468225635360000 0.6815786623560000 Ba
atom_frac 0.2507124776950000 0.2492875223050000 0.6075868705800000 Zr
atom_frac 0.7492875223050001 0.7507124776950002 0.6075868705800000 Zr
atom_frac 0.2500000000000000 0.2500000000000000 0.7499999999999999 Zr
atom_frac 0.7500000000000000 0.7500000000000000 0.7499999999999999 Zr
atom_frac 0.2134538559680000 0.2865461440320000 0.5369576878299999 S
atom_frac 0.7865461440320001 0.7134538559680002 0.5369576878299999 S
atom_frac 0.2980686081080001 0.2019313918920000 0.6796125937580000 S
atom_frac 0.7019313918920002 0.7980686081080001 0.6796125937580000 S
atom_frac 0.5000000000000000 0.0000000000000000 0.5987026965100000 S
atom_frac 0.0000000000000000 0.5000000000000000 0.6214605797590000 S
atom_frac 0.5000000000000000 0.0000000000000000 0.7633829065430000 S
atom_frac 0.0000000000000000 0.5000000000000000 0.7366170934570000 S
atom_frac 0.0000000000000000 0.0000000000000000 0.6113146384810000 S
atom_frac 0.5000000000000000 0.5000000000000000 0.6113146384810000 S
atom_frac 0.0000000000000000 0.0000000000000000 0.7499999999999999 S
atom_frac 0.5000000000000000 0.5000000000000000 0.7499999999999999 S
atom_frac 0.2468225635360000 0.7468225635360000 0.8184213376440000 Ba
atom_frac 0.7531774364640000 0.2531774364640000 0.8184213376440000 Ba
atom_frac 0.2643164531160000 0.7643164531160000 0.9500789871840000 Ba
atom_frac 0.7356835468840000 0.2356835468840000 0.9500789871840000 Ba
atom_frac 0.2492875223050000 0.2507124776950000 0.8924131294200000 Zr
atom_frac 0.7507124776950002 0.7492875223050001 0.8924131294200000 Zr
atom_frac 0.2019313918920000 0.2980686081080001 0.8203874062420000 S
atom_frac 0.7980686081080001 0.7019313918920002 0.8203874062420000 S
atom_frac 0.2865461440320000 0.2134538559680000 0.9630423121700000 S
atom_frac 0.7134538559680002 0.7865461440320001 0.9630423121700000 S
atom_frac 0.5000000000000000 0.0000000000000000 0.8785394202410000 S
atom_frac 0.0000000000000000 0.5000000000000000 0.9012973034900000 S
atom_frac 0.0000000000000000 0.0000000000000000 0.8886853615190000 S
atom_frac 0.5000000000000000 0.5000000000000000 0.8886853615190000 S
atom_frac 0.2356835468840000 0.2643164531160000 0.0499210128160000 Ba
atom_frac 0.7643164531160000 0.7356835468840000 0.0499210128160000 Ba
atom_frac 0.2531774364640000 0.2468225635360000 0.1815786623560000 Ba
atom_frac 0.7468225635360000 0.7531774364640000 0.1815786623560000 Ba
atom_frac 0.2507124776950000 0.7507124776950002 0.1075868705800000 Zr
atom_frac 0.7492875223050001 0.2492875223050000 0.1075868705800000 Zr
atom_frac 0.2500000000000000 0.7500000000000000 0.2500000000000000 Zr
atom_frac 0.7500000000000000 0.2500000000000000 0.2500000000000000 Zr
atom_frac 0.2134538559680000 0.7134538559680002 0.0369576878300000 S
atom_frac 0.7865461440320001 0.2865461440320000 0.0369576878300000 S
atom_frac 0.2980686081080001 0.7980686081080001 0.1796125937580000 S
atom_frac 0.7019313918920002 0.2019313918920000 0.1796125937580000 S
atom_frac 0.5000000000000000 0.5000000000000000 0.1113146384810000 S
atom_frac 0.0000000000000000 0.0000000000000000 0.1113146384810000 S
atom_frac 0.5000000000000000 0.5000000000000000 0.2500000000000000 S
atom_frac 0.0000000000000000 0.0000000000000000 0.2500000000000000 S
atom_frac 0.0000000000000000 0.5000000000000000 0.1214605797590000 S
atom_frac 0.5000000000000000 0.0000000000000000 0.0987026965100000 S
atom_frac 0.0000000000000000 0.5000000000000000 0.2366170934570000 S
atom_frac 0.5000000000000000 0.0000000000000000 0.2633829065430000 S
atom_frac 0.2468225635360000 0.2531774364640000 0.3184213376440000 Ba
atom_frac 0.7531774364640000 0.7468225635360000 0.3184213376440000 Ba
atom_frac 0.2643164531160000 0.2356835468840000 0.4500789871840000 Ba
atom_frac 0.7356835468840000 0.7643164531160000 0.4500789871840000 Ba
atom_frac 0.2492875223050000 0.7492875223050001 0.3924131294200000 Zr
atom_frac 0.7507124776950002 0.2507124776950000 0.3924131294200000 Zr
atom_frac 0.2019313918920000 0.7019313918920002 0.3203874062420000 S
atom_frac 0.7980686081080001 0.2980686081080001 0.3203874062420000 S
atom_frac 0.2865461440320000 0.7865461440320001 0.4630423121700001 S
atom_frac 0.7134538559680002 0.2134538559680000 0.4630423121700001 S
atom_frac 0.5000000000000000 0.5000000000000000 0.3886853615190000 S
atom_frac 0.0000000000000000 0.0000000000000000 0.3886853615190000 S
atom_frac 0.0000000000000000 0.5000000000000000 0.4012973034900000 S
atom_frac 0.5000000000000000 0.0000000000000000 0.3785394202410000 S
