#=======================================================
# FHI-aims file: /mnt/lustre/a2fs-work2/work/e05/e05/prakaya/chalcogenide_perovskites/redo/ternary/tilted_perovskites/RP_phase_tilt_n_2_67/relaxation/geometry.in.next_step
# Created using the Atomic Simulation Environment (ASE)
# Mon Mar 25 08:52:43 2024

# Additional information:
#  Relaxed with BFGS, fmax=1.000 meV/AA
#  nsteps = 6
#  residual force  = 0.258422 meV/AA
#  residual stress = 0.470552 meV/AA
#=======================================================
lattice_vector 3.4792106391740001 -12.6474770195190001 0.0000000000000000 
lattice_vector 3.4792106391740001 12.6474770195190001 0.0000000000000000 
lattice_vector 0.0000000000000000 0.0000000000000000 7.1290461372750000 
atom_frac 0.5693158974900001 0.4306841025100001 0.7290287926850000 Ba
atom_frac 0.0693158974900000 0.9306841025100000 0.2709712073150000 Ba
atom_frac 0.7500000000000000 0.2500000000000001 0.7554511434610000 Ba
atom_frac 0.2500000000000001 0.7500000000000001 0.2445488565390000 Ba
atom_frac 0.6502565566080000 0.3497434433920000 0.2482812148780000 Zr
atom_frac 0.1502565566080002 0.8497434433920001 0.7517187851220001 Zr
atom_frac 0.8497434433920001 0.1502565566079999 0.2482812148780000 Zr
atom_frac 0.3497434433920001 0.6502565566080001 0.7517187851220001 Zr
atom_frac 0.5519296797450000 0.4480703202550000 0.2866054401060000 S
atom_frac 0.0519296797450001 0.9480703202550000 0.7133945598940001 S
atom_frac 0.7500000000000000 0.2500000000000001 0.1977020343910000 S
atom_frac 0.2500000000000001 0.7500000000000001 0.8022979656090000 S
atom_frac 0.8947168693779999 0.6052831306219999 0.0000000000000000 S
atom_frac 0.4132026486440000 0.0867973513560000 0.5000000000000000 S
atom_frac 0.1052831306220000 0.3947168693780000 0.0000000000000000 S
atom_frac 0.5867973513560001 0.9132026486440001 0.5000000000000000 S
atom_frac 0.3947168693780000 0.1052831306220000 0.0000000000000000 S
atom_frac 0.9132026486440000 0.5867973513559999 0.5000000000000000 S
atom_frac 0.6052831306220001 0.8947168693780001 0.0000000000000000 S
atom_frac 0.0867973513560000 0.4132026486440000 0.5000000000000000 S
atom_frac 0.9306841025100000 0.0693158974900000 0.7290287926850000 Ba
atom_frac 0.4306841025100000 0.5693158974900000 0.2709712073150000 Ba
atom_frac 0.9480703202549999 0.0519296797450000 0.2866054401060000 S
atom_frac 0.4480703202550000 0.5519296797450000 0.7133945598940001 S
