#=======================================================
# FHI-aims file: /mnt/lustre/a2fs-work2/work/e05/e05/prakaya/chalcogenide_perovskites/redo/ternary/tilted_perovskites/RP_phase_tilt_n_2_58/relaxation/geometry.in.next_step
# Created using the Atomic Simulation Environment (ASE)
# Mon Mar 25 09:57:23 2024

# Additional information:
#  Relaxed with BFGS, fmax=1.000 meV/AA
#  nsteps = 8
#  residual force  = 0.373312 meV/AA
#  residual stress = 0.851891 meV/AA
#=======================================================
lattice_vector 7.0581718547849999 0.0000000000000000 0.0000000000000000 
lattice_vector 0.0000000000000000 7.0583386864869997 0.0000000000000000 
lattice_vector 0.0000000000000000 0.0000000000000000 25.1466734551500011 
atom_frac 0.7360655655360000 0.2360664984650000 0.8189470559670000 Ba
atom_frac 0.2639344344630000 0.7639335015349998 0.8189470559670000 Ba
atom_frac 0.7552444435060000 0.2552409485210000 0.0000000000000000 Ba
atom_frac 0.2447555564930000 0.7447590514789999 0.0000000000000000 Ba
atom_frac 0.2494226746910000 0.2505741845350000 0.9001467959579998 Zr
atom_frac 0.7505773253080001 0.7494258154650000 0.9001467959579998 Zr
atom_frac 0.2494226746910000 0.2505741845350000 0.0998532040420000 Zr
atom_frac 0.7505773253080001 0.7494258154650000 0.0998532040420000 Zr
atom_frac 0.2855204569300000 0.2144352414100000 0.8015831177109999 S
atom_frac 0.7144795430690000 0.7855647585899999 0.8015831177109999 S
atom_frac 0.2063340053420000 0.2936823546030000 0.0000000000000000 S
atom_frac 0.7936659946570001 0.7063176453970000 0.0000000000000000 S
atom_frac -0.0000000000010000 0.0000000000000000 0.9044554635209999 S
atom_frac 0.4999999999990000 0.4999999999999999 0.9044450136659999 S
atom_frac -0.0000000000010000 0.0000000000000000 0.0955445364790000 S
atom_frac 0.4999999999990000 0.4999999999999999 0.0955549863340000 S
atom_frac -0.0000000000010000 0.4999999999999999 0.8882600866300000 S
atom_frac 0.4999999999990000 0.0000000000000000 0.9182993786909999 S
atom_frac -0.0000000000010000 0.4999999999999999 0.1117399133700000 S
atom_frac 0.4999999999990000 0.0000000000000000 0.0817006213090000 S
atom_frac 0.7360655655360000 0.2360664984650000 0.1810529440330000 Ba
atom_frac 0.2639344344630000 0.7639335015349998 0.1810529440330000 Ba
atom_frac 0.2855204569300000 0.2144352414100000 0.1984168822890000 S
atom_frac 0.7144795430690000 0.7855647585899999 0.1984168822890000 S
atom_frac 0.2360655655360000 0.2639335015350000 0.3189470559670000 Ba
atom_frac 0.7639344344630000 0.7360664984650001 0.3189470559670000 Ba
atom_frac 0.2552444435060000 0.2447590514790000 0.4999999999999999 Ba
atom_frac 0.7447555564930000 0.7552409485210000 0.4999999999999999 Ba
atom_frac 0.7494226746910000 0.2494258154650000 0.4001467959580000 Zr
atom_frac 0.2505773253080000 0.7505741845349999 0.4001467959580000 Zr
atom_frac 0.7494226746910000 0.2494258154650000 0.5998532040419999 Zr
atom_frac 0.2505773253080000 0.7505741845349999 0.5998532040419999 Zr
atom_frac 0.7855204569300001 0.2855647585900000 0.3015831177110000 S
atom_frac 0.2144795430690000 0.7144352414100000 0.3015831177110000 S
atom_frac 0.7063340053420000 0.2063176453970000 0.4999999999999999 S
atom_frac 0.2936659946570000 0.7936823546029999 0.4999999999999999 S
atom_frac 0.4999999999990000 0.0000000000000000 0.3882600866300000 S
atom_frac -0.0000000000010000 0.4999999999999999 0.4182993786910000 S
atom_frac 0.4999999999990000 0.0000000000000000 0.6117399133699999 S
atom_frac -0.0000000000010000 0.4999999999999999 0.5817006213089999 S
atom_frac 0.4999999999990000 0.4999999999999999 0.4044554635209999 S
atom_frac -0.0000000000010000 0.0000000000000000 0.4044450136659999 S
atom_frac 0.4999999999990000 0.4999999999999999 0.5955445364789999 S
atom_frac -0.0000000000010000 0.0000000000000000 0.5955549863339998 S
atom_frac 0.2360655655360000 0.2639335015350000 0.6810529440329999 Ba
atom_frac 0.7639344344630000 0.7360664984650001 0.6810529440329999 Ba
atom_frac 0.7855204569300001 0.2855647585900000 0.6984168822890000 S
atom_frac 0.2144795430690000 0.7144352414100000 0.6984168822890000 S
