#=======================================================
# FHI-aims file: /mnt/lustre/a2fs-work2/work/e05/e05/prakaya/chalcogenide_perovskites/redo/ternary/Ba3Zr2S7_P42_mnm_light/relaxation/geometry.in.next_step
# Created using the Atomic Simulation Environment (ASE)
# Fri Mar 15 09:45:39 2024

# Additional information:
#  Relaxed with BFGS, fmax=1.000 meV/AA
#  nsteps = 8
#  residual force  = 0.491174 meV/AA
#  residual stress = 0.808040 meV/AA
#=======================================================
lattice_vector 7.0582120176820000 0.0000000000000000 -0.0000000000000000 
lattice_vector -0.0000000000000000 7.0582120176820000 0.0000000000000000 
lattice_vector 0.0000000000000000 0.0000000000000000 25.1468646867399990 
atom_frac 0.2447451243020000 0.2447451243020000 0.0000000000000000 Ba
atom_frac 0.7552548756980000 0.7552548756980000 0.0000000000000000 Ba
atom_frac 0.2552548756980000 0.7447451243020000 0.5000000000000000 Ba
atom_frac 0.7447451243020000 0.2552548756980000 0.5000000000000000 Ba
atom_frac 0.2639226214450000 0.2639226214450000 0.8189461333880000 Ba
atom_frac 0.7360773785550000 0.7360773785550000 0.8189461333880000 Ba
atom_frac 0.2360773785550000 0.7639226214450000 0.3189461333880000 Ba
atom_frac 0.7639226214450000 0.2360773785550000 0.3189461333880000 Ba
atom_frac 0.2360773785550000 0.7639226214450000 0.6810538666120001 Ba
atom_frac 0.7639226214450000 0.2360773785550000 0.6810538666120001 Ba
atom_frac 0.2639226214450000 0.2639226214450000 0.1810538666120000 Ba
atom_frac 0.7360773785550000 0.7360773785550000 0.1810538666120000 Ba
atom_frac 0.0000000000000000 0.0000000000000000 0.4182971444200000 S
atom_frac 0.4999999999999999 0.4999999999999999 0.9182971444190000 S
atom_frac 0.4999999999999999 0.4999999999999999 0.0817028555800000 S
atom_frac 0.0000000000000000 0.0000000000000000 0.5817028555800000 S
atom_frac 0.0000000000000000 0.0000000000000000 0.8882609284390001 S
atom_frac 0.4999999999999999 0.4999999999999999 0.3882609284390000 S
atom_frac 0.4999999999999999 0.4999999999999999 0.6117390715610000 S
atom_frac 0.0000000000000000 0.0000000000000000 0.1117390715610000 S
atom_frac 0.2063390484650000 0.7936609515350000 0.0000000000000000 S
atom_frac 0.7936609515350000 0.2063390484650000 0.0000000000000000 S
atom_frac 0.7063390484650000 0.7063390484650000 0.5000000000000000 S
atom_frac 0.2936609515350000 0.2936609515350000 0.5000000000000000 S
atom_frac 0.0000000000000000 0.4999999999999999 0.5955482608420000 S
atom_frac 0.0000000000000000 0.4999999999999999 0.0955482608420000 S
atom_frac 0.4999999999999999 0.0000000000000000 0.9044517391580000 S
atom_frac 0.4999999999999999 0.0000000000000000 0.4044517391580000 S
atom_frac 0.0000000000000000 0.4999999999999999 0.4044517391580000 S
atom_frac 0.0000000000000000 0.4999999999999999 0.9044517391580000 S
atom_frac 0.4999999999999999 0.0000000000000000 0.0955482608420000 S
atom_frac 0.4999999999999999 0.0000000000000000 0.5955482608420000 S
atom_frac 0.2144757739420000 0.2144757739420000 0.3015825015920000 S
atom_frac 0.7855242260580000 0.7855242260580000 0.3015825015920000 S
atom_frac 0.2855242260579999 0.7144757739420000 0.8015825015920000 S
atom_frac 0.7144757739420000 0.2855242260579999 0.8015825015920000 S
atom_frac 0.2855242260579999 0.7144757739420000 0.1984174984080000 S
atom_frac 0.7144757739420000 0.2855242260579999 0.1984174984080000 S
atom_frac 0.2144757739420000 0.2144757739420000 0.6984174984080000 S
atom_frac 0.7855242260580000 0.7855242260580000 0.6984174984080000 S
atom_frac 0.2505762187390000 0.2505762187390000 0.4001469063460000 Zr
atom_frac 0.7494237812609998 0.7494237812609998 0.4001469063460000 Zr
atom_frac 0.2494237812610000 0.7505762187390000 0.9001469063460001 Zr
atom_frac 0.7505762187390000 0.2494237812610000 0.9001469063460001 Zr
atom_frac 0.2494237812610000 0.7505762187390000 0.0998530936540000 Zr
atom_frac 0.7505762187390000 0.2494237812610000 0.0998530936540000 Zr
atom_frac 0.2505762187390000 0.2505762187390000 0.5998530936540000 Zr
atom_frac 0.7494237812609998 0.7494237812609998 0.5998530936540000 Zr
