#=======================================================
# FHI-aims file: /mnt/lustre/a2fs-work2/work/e05/e05/prakaya/chalcogenide_perovskites/redo/ternary/BaZrS3_P4_mbm/relaxation/geometry.in.next_step
# Created using the Atomic Simulation Environment (ASE)
# Sat Mar  9 17:06:28 2024

# Additional information:
#  Relaxed with BFGS, fmax=1.000 meV/AA
#  nsteps = 13
#  residual force  = 0.069814 meV/AA
#  residual stress = 0.358556 meV/AA
#=======================================================
lattice_vector 6.9219962646660003 0.0000000000000000 0.0000000000000000 
lattice_vector 0.0000000000000000 6.9219962646660003 0.0000000000000000 
lattice_vector -0.0000000000000000 0.0000000000000000 5.0906878833290001 
atom_frac 0.0000000000000000 0.5000000000000000 0.5000000000000000 Ba
atom_frac 0.5000000000000000 0.0000000000000000 0.5000000000000000 Ba
atom_frac 0.5000000000000000 0.5000000000000000 0.0000000000000000 Zr
atom_frac 0.0000000000000000 0.0000000000000000 0.0000000000000000 Zr
atom_frac 0.5000000000000000 0.5000000000000000 0.5000000000000000 S
atom_frac 0.0000000000000000 0.0000000000000000 0.5000000000000000 S
atom_frac 0.3062772893880000 0.8062772893879999 0.0000000000000000 S
atom_frac 0.6937227106120000 0.1937227106120000 0.0000000000000000 S
atom_frac 0.1937227106120000 0.3062772893880000 0.0000000000000000 S
atom_frac 0.8062772893879999 0.6937227106120000 0.0000000000000000 S
