#=======================================================
# FHI-aims file: /mnt/lustre/a2fs-work2/work/e05/e05/prakaya/chalcogenide_perovskites/redo/ternary/BaZrS3_I4_mcm/relaxation/geometry.in.next_step
# Created using the Atomic Simulation Environment (ASE)
# Tue Mar 19 20:33:59 2024

# Additional information:
#  Relaxed with BFGS, fmax=1.000 meV/AA
#  nsteps = 13
#  residual force  = 0.092726 meV/AA
#  residual stress = 0.228466 meV/AA
#=======================================================
lattice_vector -3.4573037511810001 3.4573037511810001 5.0834535388419999 
lattice_vector 3.4573037511810001 -3.4573037511810001 5.0834535388419999 
lattice_vector 3.4573037511810001 3.4573037511810001 -5.0834535388419999 
atom_frac 0.7499999996070000 0.2499999996070001 0.5000000000000001 Ba
atom_frac 0.2499999996069999 0.7499999996070001 0.5000000000000001 Ba
atom_frac -0.0000000003930000 -0.0000000003930000 -0.0000000000000000 Zr
atom_frac 0.4999999996069999 0.4999999996070000 0.0000000000000001 Zr
atom_frac 0.8089655914710001 0.3089655914710001 0.1179311837290000 S
atom_frac 0.3089655914709999 0.1910344077420001 0.5000000000000001 S
atom_frac 0.6910344077419999 0.8089655914710002 0.5000000000000001 S
atom_frac 0.1910344077420001 0.6910344077420000 0.8820688162710001 S
atom_frac 0.7499999996069998 0.7499999996070001 0.0000000000000001 S
atom_frac 0.2499999996070000 0.2499999996070000 0.0000000000000000 S

