#=======================================================
# FHI-aims file: /mnt/lustre/a2fs-work2/work/e05/e05/prakaya/chalcogenide_perovskites/redo/ternary/BaZrS3_I4_mcm/relaxation/geometry.in.next_step
# Created using the Atomic Simulation Environment (ASE)
# Sat Mar  9 16:58:57 2024

# Additional information:
#  Relaxed with BFGS, fmax=1.000 meV/AA
#  nsteps = 13
#  residual force  = 0.092278 meV/AA
#  residual stress = 0.228466 meV/AA
#=======================================================
lattice_vector -3.4573035866319999 3.4573035866319999 5.0834537809629996 
lattice_vector 3.4573035866319999 -3.4573035866319999 5.0834537809629996 
lattice_vector 3.4573035866319999 3.4573035866319999 -5.0834537809629996 
atom_frac 0.7499999996070001 0.2499999996070001 0.5000000000000001 Ba
atom_frac 0.2499999996070001 0.7499999996070001 0.5000000000000001 Ba
atom_frac -0.0000000003930000 -0.0000000003930000 -0.0000000000000000 Zr
atom_frac 0.4999999996070000 0.4999999996070000 0.0000000000000001 Zr
atom_frac 0.8089656697260000 0.3089656697260001 0.1179313402380000 S
atom_frac 0.3089656697260000 0.1910343294880001 0.5000000000000000 S
atom_frac 0.6910343294879999 0.8089656697260001 0.5000000000000001 S
atom_frac 0.1910343294880000 0.6910343294880001 0.8820686597620002 S
atom_frac 0.7499999996070000 0.7499999996070001 0.0000000000000001 S
